0 335
0 897
0 1290
0 1351
0 1922
0 2408
0 3455
0 4084
0 4445
0 4843
0 5363
0 5546
0 6163
0 6498
0 6752
0 7957
1 1464
2 213
2 965
2 3414
2 7400
3 4051
4 681
4 1377
4 1419
4 1537
4 2609
4 3407
4 6885
4 6928
4 6964
4 7088
4 7171
4 7226
4 7650
4 7719
4 7794
5 393
5 1064
5 2262
5 2460
5 3132
5 3209
5 3661
5 3691
5 3909
5 4654
5 5092
5 5874
5 7385
5 7386
5 7400
6 1077
6 1346
6 3280
6 4507
6 4574
6 4977
6 5507
6 6843
6 8113
7 1393
7 3456
8 591
9 9
9 35
9 393
9 1163
9 1464
9 5983
9 7161
9 7242
9 8171
9 8242
10 580
10 825
10 2715
10 5773
11 369
11 669
11 828
11 2099
11 2336
11 4100
11 4502
11 4560
11 5874
12 3132
12 3691
12 4157
12 4399
12 4641
12 4991
12 5253
12 6625
12 6654
13 4014
14 127
14 264
14 313
14 429
14 498
14 590
14 655
14 732
14 1231
14 1356
14 1381
14 1792
14 2086
14 2201
14 2839
14 3028
14 3147
14 3166
14 3315
14 3485
14 3502
14 3544
14 3703
14 3873
14 4187
14 4399
14 4436
14 4795
14 4954
14 5183
14 5216
14 5802
14 6162
14 6782
14 7400
14 7562
15 300
15 341
15 354
15 364
15 368
15 440
15 471
15 482
15 593
15 685
15 788
15 1176
15 1195
15 1317
15 1419
15 1536
15 1709
15 1826
15 1916
15 1981
15 2460
15 2462
15 2478
15 2594
15 2797
15 2859
15 3019
15 3132
15 3209
15 3267
15 3270
15 3407
15 3494
15 3544
15 3644
15 4066
15 4166
15 4230
15 4397
15 4416
15 4641
15 4696
15 4706
15 4770
15 4793
15 4846
15 4991
15 5253
15 5294
15 5346
15 5383
15 5391
15 5594
15 6010
15 6090
15 6158
15 6160
15 6257
15 6383
15 6407
15 6621
15 6625
15 6791
15 6874
15 6938
15 6939
15 6942
15 7011
15 7034
15 7072
15 7091
15 7235
15 7276
15 7321
15 7385
15 7596
15 7597
15 7661
15 7670
15 7687
15 7688
15 7690
15 7857
15 7870
15 7897
15 7990
15 8144
16 31
16 1357
16 1959
16 1988
16 2364
16 3697
16 5407
16 5678
16 6053
16 6248
17 782
17 1346
17 1468
17 1895
17 2314
17 3092
17 3580
17 3819
17 3980
17 5009
17 5192
17 7727
18 643
18 2579
18 5164
18 5800
18 7181
19 310
20 1201
21 1283
21 3054
22 2942
22 6311
23 632
23 1437
23 6259
24 2217
25 6052
26 284
26 333
26 562
26 825
26 909
26 916
26 1099
26 1203
26 1240
26 1315
26 1398
26 1671
26 2023
26 2114
26 2127
26 2263
26 2275
26 2378
26 2863
26 3261
26 3465
26 3507
26 3530
26 3544
26 3557
26 3700
26 4006
26 4141
26 4237
26 4279
26 4533
26 4800
26 4868
26 4980
26 5116
26 5166
26 5257
26 5291
26 5590
26 5638
26 5749
26 6106
26 6388
26 6558
26 7237
26 7264
26 7592
26 7775
26 7900
26 8173
27 5276
28 7276
29 498
29 543
29 1195
29 1250
29 1289
29 1343
29 1441
29 1459
29 2190
29 2195
29 2418
29 2876
29 3118
29 3463
29 3590
29 4399
29 4431
29 4526
29 4640
29 4991
29 5154
29 5306
29 5847
29 6634
29 6718
29 6841
29 7091
29 7768
29 7970
29 8013
30 6141
31 752
31 2187
31 2809
31 2957
31 4033
31 6697
31 6716
31 6784
31 7217
31 7276
31 7925
32 3051
32 3104
32 4052
32 4814
33 190
33 3202
33 4913
34 562
34 1250
34 2320
34 3309
34 4399
34 5391
34 5764
34 6022
34 8012
35 197
35 229
35 282
35 284
35 486
35 573
35 631
35 761
35 808
35 884
35 903
35 977
35 1064
35 1137
35 1292
35 1388
35 1500
35 1574
35 1588
35 1829
35 1985
35 2073
35 2195
35 2307
35 2502
35 2609
35 2987
35 3270
35 3309
35 3410
35 3474
35 3491
35 3513
35 3527
35 3537
35 3572
35 3867
35 3881
35 3944
35 4093
35 4187
35 4290
35 4331
35 4345
35 4347
35 4484
35 4924
35 4930
35 5190
35 5295
35 5328
35 5333
35 5873
35 5927
35 6047
35 6161
35 6169
35 6352
35 6383
35 6388
35 6407
35 6511
35 6770
35 6782
35 7012
35 7022
35 7079
35 7281
35 7478
35 7555
35 7771
35 7976
36 126
36 690
36 822
36 1351
36 3000
36 3092
36 4574
36 5197
36 5468
36 5546
36 5674
36 6560
37 1526
37 5333
37 7079
38 112
38 157
38 221
38 334
38 361
38 394
38 470
38 541
38 562
38 631
38 925
38 1163
38 1315
38 1513
38 1804
38 1826
38 1990
38 2266
38 2378
38 2414
38 2598
38 2862
38 3118
38 3206
38 3373
38 3467
38 3507
38 3607
38 4169
38 4397
38 4586
38 4918
38 5004
38 5024
38 5139
38 5208
38 5291
38 5308
38 5309
38 6383
38 6456
38 6632
38 6656
38 6784
38 6836
38 6874
38 6938
38 6939
38 6946
38 7242
38 7244
38 7276
38 7292
38 7396
38 7473
38 7587
38 7691
39 491
39 2141
39 2243
39 3679
39 5693
39 6402
39 6903
39 7002
40 916
41 4069
42 1400
43 90
43 280
43 447
43 542
43 557
43 582
43 822
43 1068
43 1396
43 1574
43 2231
43 2541
43 2577
43 2715
43 2895
43 3043
43 3095
43 3202
43 3293
43 3455
43 3475
43 3531
43 3654
43 3793
43 4387
43 4649
43 5157
43 5251
43 5284
43 5290
43 5361
43 5569
43 5773
43 5936
43 6059
43 6086
43 6240
43 6258
43 6321
43 6340
43 6686
43 7031
43 7179
43 7266
43 7519
43 7540
43 7553
43 8154
43 8208
43 8222
43 8255
44 925
44 5166
44 6133
45 1009
46 1826
46 4477
46 6685
46 6779
46 7275
46 8139
47 449
47 1316
47 3092
47 3984
47 4423
47 5563
47 6802
48 2834
49 556
49 965
49 3299
49 3392
49 4103
49 4291
49 4347
49 4451
49 4460
49 4584
49 5465
49 7180
49 7281
49 7511
49 7555
49 7563
49 8089
49 8104
49 8213
50 498
50 767
50 2159
50 3867
50 5738
50 6150
50 6550
50 7286
51 4464
51 7687
52 1974
52 4158
52 6137
52 7276
53 631
53 2862
53 7011
53 7080
53 7276
53 7632
53 7687
53 7824
53 8047
54 69
54 1925
55 2230
55 2406
55 4723
55 6092
56 860
57 76
57 186
57 1153
57 2964
57 3058
57 4535
57 5095
57 5602
57 6271
57 6326
57 6563
57 7605
57 7608
58 181
58 427
58 559
58 631
58 925
58 1878
58 2101
58 2436
58 2716
58 2767
58 2823
58 2922
58 3826
58 3847
58 3993
58 4334
58 4346
58 4572
58 5308
58 5342
58 5379
58 5748
58 5854
58 5874
58 5977
58 6177
58 6622
58 6651
58 6795
58 7245
58 7264
58 7292
58 7352
58 7587
58 7661
58 7900
58 8151
59 2001
59 6343
60 5224
61 3456
62 157
62 196
62 925
62 1545
62 1634
62 1919
62 2702
62 2957
62 4100
62 4572
62 4778
62 5526
62 5761
62 6836
62 7276
62 7281
62 7587
63 63
63 498
63 696
64 2451
65 2296
65 4445
66 66
66 1356
66 2773
66 4399
66 6053
66 7012
66 7734
67 69
67 293
67 361
67 770
67 1020
67 1240
67 1255
67 1427
67 1602
67 2001
67 2291
67 2378
67 2383
67 2480
67 2604
67 2950
67 3265
67 3774
67 4169
67 4234
67 4397
67 4533
67 4623
67 4661
67 4773
67 5004
67 5308
67 5328
67 5336
67 5458
67 5530
67 5611
67 6512
67 6587
67 6748
67 7190
67 7680
68 7346
69 158
69 197
69 202
69 229
69 284
69 393
69 510
69 591
69 606
69 610
69 654
69 776
69 806
69 808
69 830
69 852
69 886
69 925
69 1021
69 1064
69 1078
69 1365
69 1388
69 1419
69 1530
69 2060
69 2073
69 2173
69 2195
69 2263
69 2307
69 2462
69 2502
69 2609
69 2759
69 2812
69 2987
69 3463
69 3485
69 3592
69 3604
69 3736
69 3760
69 3778
69 3784
69 3857
69 3905
69 3944
69 3959
69 4114
69 4127
69 4291
69 4347
69 4432
69 4677
69 4803
69 4823
69 4924
69 5295
69 5342
69 5355
69 5873
69 5874
69 5927
69 6101
69 6161
69 6245
69 6247
69 6449
69 6511
69 6621
69 6692
69 6791
69 6830
69 6870
69 6976
69 7092
69 7197
69 7208
69 7281
69 7385
69 7423
69 7555
69 7563
69 7586
69 7588
69 7591
69 7771
69 7775
69 7781
69 7828
69 7976
69 8023
69 8158
70 1495
71 2007
71 2419
72 1146
72 3772
72 7670
73 610
73 3881
73 7840
74 968
74 2916
74 7676
75 575
75 718
75 831
75 1643
75 1963
75 2950
75 3309
75 3684
75 3826
75 4804
75 5126
75 5953
75 6041
75 6208
75 6384
75 6393
75 6651
75 6656
75 7091
75 7172
75 7235
75 7451
75 8071
77 118
77 135
77 216
77 310
77 337
77 430
77 602
77 642
77 808
77 825
77 895
77 907
77 1052
77 1071
77 1079
77 1207
77 1250
77 1271
77 1277
77 1299
77 1315
77 1381
77 1383
77 1419
77 1466
77 1495
77 1792
77 1878
77 1882
77 2498
77 2557
77 2598
77 2687
77 2862
77 2935
77 2957
77 2966
77 3022
77 3254
77 3499
77 3530
77 3593
77 3857
77 4009
77 4014
77 4222
77 4272
77 4279
77 4539
77 4645
77 4865
77 4899
77 5108
77 5216
77 5274
77 5410
77 5447
77 5586
77 5598
77 5713
77 5749
77 5859
77 5866
77 6050
77 6375
77 6382
77 6383
77 6615
77 6651
77 6685
77 6705
77 6943
77 6987
77 7083
77 7167
77 7191
77 7265
77 7381
77 7574
77 7587
77 7592
77 7871
77 7934
77 7998
77 8111
77 8139
77 8152
77 8197
77 8221
78 556
79 7011
79 7794
80 498
80 2298
80 2404
80 3309
81 112
81 118
81 300
81 310
81 394
81 440
81 471
81 556
81 558
81 825
81 909
81 1099
81 1250
81 1292
81 1315
81 1359
81 1466
81 1709
81 2862
81 3407
81 3467
81 3684
81 3895
81 4022
81 4356
81 4397
81 4539
81 4661
81 4943
81 4945
81 5126
81 5212
81 5308
81 5391
81 5631
81 5835
81 6573
81 6735
81 6753
81 6938
81 6939
81 6941
81 6943
81 7011
81 7080
81 7167
81 7190
81 7276
81 7321
81 7491
81 7554
81 7591
81 7632
81 7638
81 7680
81 7684
81 7691
81 7720
81 7782
81 7824
81 7927
81 7998
81 8170
81 8197
82 424
82 532
82 2890
82 3624
82 3924
83 1096
83 1533
83 3309
83 3592
83 3681
83 5284
83 6258
83 7961
84 236
84 629
84 690
84 862
84 947
84 948
84 1097
84 1125
84 1194
84 1228
84 1346
84 1396
84 1406
84 1549
84 1785
84 1890
84 1892
84 1959
84 2109
84 2293
84 2379
84 2415
84 2540
84 2819
84 2904
84 3008
84 3160
84 3280
84 3533
84 3707
84 3925
84 4150
84 4258
84 4507
84 4891
84 4977
84 5053
84 5066
84 5136
84 5266
84 5716
84 5771
84 6111
84 6299
84 6704
84 6799
84 6866
84 7045
84 7181
84 7332
84 7456
84 7722
84 7736
84 7751
84 7800
84 7902
85 3364
86 1267
86 4707
86 4830
86 6933
86 6960
86 7551
87 758
87 3402
87 3887
87 4349
87 5957
87 8038
88 556
88 7385
89 1464
91 229
92 5380
93 284
93 1714
93 2073
93 5562
93 6759
93 7998
94 117
94 145
94 157
94 172
94 327
94 406
94 473
94 731
94 877
94 1137
94 1227
94 1433
94 1806
94 1905
94 2234
94 2408
94 2660
94 3937
94 3962
94 4667
94 4676
94 4788
94 5215
94 5234
94 5237
94 5245
94 5408
94 5507
94 5542
94 5762
94 6094
94 6109
94 6330
94 6840
94 7035
94 7360
94 7483
94 7500
94 7985
95 1643
95 1806
95 2830
95 7349
95 8052
96 2598
96 2876
97 2556
98 6728
99 511
99 607
99 2408
99 2540
99 3825
99 4423
99 4686
99 4950
99 4977
99 5234
99 5880
99 6111
99 6498
99 6802
99 7727
99 8164
100 2853
101 2297
102 2954
103 1990
104 3364
105 2076
105 4918
105 7465
106 283
106 636
106 1020
106 1464
106 1920
106 2035
106 4397
106 5802
106 6311
107 1284
107 3818
107 3980
107 5454
107 6320
108 196
108 333
108 334
108 411
108 430
108 718
108 847
108 900
108 987
108 1112
108 1395
108 1545
108 1600
108 1619
108 1798
108 1826
108 1919
108 2767
108 2856
108 2896
108 3630
108 3700
108 3829
108 3849
108 4533
108 4633
108 5262
108 5342
108 5472
108 5618
108 5761
108 6162
108 6454
108 7281
108 7788
109 7190
110 859
110 961
110 1044
110 1061
110 1096
110 1345
110 3150
110 3232
110 3280
110 3648
110 3973
110 4205
110 4623
110 4792
110 5294
110 6025
110 6381
110 6519
110 6696
111 1274
111 3089
112 161
112 354
112 440
112 915
112 1062
112 1106
112 1172
112 1315
112 1931
112 2229
112 2406
112 2444
112 2918
112 3373
112 3891
112 3924
112 4157
112 4229
112 4230
112 4354
112 4385
112 4475
112 4526
112 4623
112 4706
112 4723
112 4734
112 4793
112 5484
112 5571
112 5626
112 5816
112 6090
112 6110
112 6165
112 6187
112 6257
112 6266
112 6291
112 6652
112 6791
112 6990
112 7032
112 7190
112 7248
112 7491
112 7555
112 7634
113 300
113 1213
113 1752
113 2140
113 2374
113 2780
113 4279
113 4393
113 4530
113 4578
113 6302
113 6443
113 6818
114 216
114 354
114 794
114 854
114 1207
114 1280
114 1404
114 1465
114 1906
114 2001
114 2276
114 2430
114 3246
114 3523
114 4623
114 4696
114 4740
114 5212
114 5428
114 5586
114 5631
114 5871
114 5946
114 5995
114 6477
114 7096
114 7172
114 7479
114 7483
114 7555
114 7871
114 8044
115 1822
116 1168
116 1925
117 2072
117 2759
117 3152
117 6067
117 6791
118 118
118 368
118 440
118 471
118 915
118 1377
118 2460
118 2708
118 2859
118 3219
118 3270
118 3582
118 4093
118 4144
118 4191
118 4416
118 4770
118 4991
118 5253
118 5594
118 5835
118 6386
118 6625
118 6654
118 6735
118 6874
118 6939
118 6943
118 6946
118 7596
118 7597
118 7691
118 7848
118 7857
118 7870
118 7897
118 8123
119 4115
119 7608
120 2293
120 3232
120 3438
120 3475
120 7678
121 3254
121 3544
122 3904
122 4399
122 6866
123 482
123 909
123 925
123 1128
123 1826
123 4191
123 4586
123 5253
123 6946
123 7011
123 7080
123 7276
123 7491
123 7817
123 7822
123 8047
123 8109
123 8162
124 2460
125 3657
125 7524
126 193
126 624
126 948
126 1125
126 1219
126 1549
126 1978
126 3102
126 5716
126 5800
126 5858
126 7509
126 7722
127 1464
127 1573
127 3859
127 4308
127 4603
127 6361
127 6596
127 6716
127 7501
127 8072
128 616
128 1792
128 2406
128 3414
128 3863
128 4187
128 4723
128 5697
128 5996
129 1651
129 5678
130 709
130 1108
131 340
131 607
131 3825
131 4445
131 4977
131 5009
131 5234
131 7500
131 7688
132 311
132 529
132 531
132 607
132 862
132 864
132 882
132 1406
132 1454
132 1670
132 1890
132 2031
132 2200
132 2271
132 2408
132 2611
132 2644
132 2904
132 3076
132 3260
132 3491
132 3651
132 3884
132 3937
132 4511
132 4714
132 4831
132 5164
132 5171
132 5321
132 5489
132 5507
132 5552
132 5800
132 6259
132 6381
132 6496
132 6739
132 7272
132 7481
132 7646
132 7712
132 7736
132 7811
132 8029
132 8216
133 2504
133 3060
133 5176
133 5880
133 6218
133 6300
133 6498
133 6847
133 7061
133 8062
134 134
134 543
134 602
134 788
134 1459
134 4399
134 5424
135 2727
135 7335
136 498
136 1298
136 1788
136 2007
136 3208
136 3216
136 3468
136 4580
136 4644
136 4654
136 6184
136 7042
136 7074
136 8170
137 8225
138 376
138 739
138 2548
138 2770
138 2970
138 3392
138 3592
138 4347
138 4351
138 4795
138 4975
138 5236
138 5237
138 5243
138 6145
138 7562
138 7959
139 1551
140 371
141 632
141 669
141 1176
141 1921
141 1963
141 2027
141 2161
141 2292
141 2307
141 3256
141 3778
141 6244
141 6338
141 6863
141 7141
141 7423
141 7523
141 7579
141 7609
141 8142
142 2010
142 4578
143 3826
144 144
144 310
144 1557
144 2107
144 2862
144 3166
144 5065
144 5762
144 6644
144 7167
145 1893
145 2293
145 3532
145 3751
145 5646
145 6022
145 6259
145 6686
145 7125
145 7372
145 7553
146 7413
146 7438
147 607
147 1663
147 1820
147 2133
147 2408
147 2540
147 2551
147 3284
147 3580
147 3662
147 4511
147 5136
147 5197
147 5338
147 5614
147 5788
147 6211
147 6431
147 6799
147 7307
147 7803
148 2121
148 2406
148 5874
148 6208
148 6383
149 515
149 599
149 734
149 831
149 931
149 1530
149 1900
149 2375
149 2660
149 2918
149 3304
149 3544
149 3627
149 3700
149 5408
149 5705
149 5790
149 6469
149 6535
149 6879
149 7281
149 7562
149 7960
149 8004
150 812
150 1575
150 3063
151 524
151 2763
151 4765
151 5854
151 6161
151 6955
151 7349
152 1933
153 655
153 732
153 1079
153 2670
154 1990
155 369
155 1064
155 5373
156 619
156 687
156 1406
156 1599
156 1674
156 2237
156 2257
156 2277
156 2293
156 2390
156 2995
156 3008
156 3102
156 3104
156 3318
156 4249
156 4929
156 5771
156 5843
156 6486
156 6724
156 6849
156 7090
156 7408
156 7492
156 7868
156 7902
157 225
157 229
157 264
157 279
157 391
157 429
157 498
157 510
157 562
157 573
157 602
157 609
157 614
157 616
157 631
157 732
157 821
157 855
157 937
157 952
157 967
157 982
157 1121
157 1152
157 1170
157 1231
157 1253
157 1315
157 1323
157 1381
157 1382
157 1386
157 1399
157 1534
157 1673
157 1743
157 1816
157 1822
157 1829
157 1865
157 1892
157 1939
157 1963
157 2086
157 2093
157 2178
157 2179
157 2217
157 2227
157 2288
157 2367
157 2404
157 2406
157 2490
157 2571
157 2864
157 3029
157 3209
157 3249
157 3309
157 3356
157 3358
157 3485
157 3494
157 3530
157 3575
157 3726
157 3765
157 3857
157 3860
157 3873
157 3924
157 4187
157 4199
157 4267
157 4368
157 4474
157 4578
157 4682
157 4720
157 4876
157 4935
157 4976
157 5015
157 5046
157 5110
157 5182
157 5279
157 5329
157 5413
157 5484
157 5606
157 5638
157 5757
157 5764
157 5785
157 5830
157 5854
157 5953
157 6032
157 6071
157 6082
157 6110
157 6186
157 6208
157 6304
157 6325
157 6339
157 6375
157 6406
157 6454
157 6651
157 6711
157 6747
157 6887
157 6920
157 6968
157 6990
157 7005
157 7012
157 7015
157 7036
157 7164
157 7197
157 7203
157 7204
157 7281
157 7406
157 7467
157 7535
157 7555
157 7656
157 7900
157 8004
157 8058
157 8089
157 8091
157 8158
157 8176
157 8194
157 8199
157 8247
158 5661
158 6656
158 7254
158 7775
159 5273
160 304
161 334
161 1464
161 2869
161 2957
161 4397
161 4586
161 4987
161 5296
161 5342
161 6716
162 420
162 3407
163 2571
163 3388
163 4144
163 4158
163 7839
164 1449
165 3309
166 166
166 211
166 655
166 732
166 1366
166 1431
166 1800
166 2159
166 2521
166 2927
166 3148
166 4291
166 4786
166 4793
166 4925
166 5218
166 5576
166 6640
166 7685
166 7784
166 7854
166 7900
166 8016
166 8031
167 3120
167 5584
168 1530
168 2071
168 2670
168 4586
168 5051
168 5249
169 176
169 4668
170 301
171 792
171 825
171 1323
171 1554
171 2674
171 2687
171 4086
171 4087
171 4533
171 4773
171 5005
171 5308
171 5408
171 5548
171 7190
171 7360
171 7483
171 7788
171 7871
172 267
172 1592
172 1803
172 2510
172 3491
172 3758
172 4052
172 4085
172 4485
172 4714
172 4950
172 5797
172 5996
172 6033
172 6580
172 6867
172 7290
172 7890
173 3537
174 2367
174 3452
175 740
175 2320
175 2759
175 5370
176 925
176 1099
176 2957
176 3703
176 4586
176 7184
177 1826
177 3657
177 4158
177 7524
177 7555
178 394
178 2121
179 619
179 1137
179 1769
179 1978
179 2271
179 4115
179 4950
179 5498
179 5824
179 6866
179 7090
179 7122
179 7621
180 808
180 820
180 1100
180 1465
180 1653
180 1864
180 3256
180 5329
180 5802
180 5914
180 5969
180 6372
180 6870
180 7180
180 7900
180 8184
181 732
181 1287
181 1315
181 1481
181 1829
181 2481
181 2823
181 3122
181 3530
181 3575
181 3873
181 4804
181 4992
181 5046
181 5342
181 5562
181 5638
181 5661
181 5758
181 5785
181 6069
181 6156
181 6456
181 7535
181 8089
182 629
182 690
182 804
182 1284
182 2136
182 2540
182 2555
182 3280
182 3580
182 3662
182 3665
182 3980
182 4445
182 4631
182 5086
182 5197
182 5454
182 5507
182 5674
182 5726
182 6109
182 6381
182 6772
182 7100
182 7383
182 7727
182 7747
183 1464
184 690
184 3521
184 4348
184 5204
184 5311
184 5800
184 7432
185 825
185 3280
185 3341
185 7276
186 690
186 1370
186 3280
186 5381
186 5552
186 8113
187 690
187 1482
187 2005
187 2234
187 2314
187 3532
187 4026
187 4164
187 4445
187 4939
187 5067
187 5716
187 7097
187 7383
187 7676
188 2219
189 4483
190 607
190 859
190 957
190 1124
190 1345
190 1959
190 2718
190 2723
190 2905
190 3309
190 3654
190 4241
190 4425
190 5171
190 5695
190 5897
190 6658
190 7040
190 7127
190 7233
190 7391
190 7453
190 7500
190 8107
190 8223
191 1451
191 4654
191 5092
192 569
192 1464
192 2018
192 3080
192 5670
193 237
193 327
193 339
193 690
193 877
193 1077
193 1189
193 1346
193 1870
193 2094
193 2296
193 2335
193 2555
193 2777
193 3451
193 3491
193 3662
193 3818
193 3904
193 3918
193 3933
193 3980
193 4286
193 4348
193 4445
193 4511
193 4891
193 5066
193 5086
193 5136
193 5234
193 5464
193 6019
193 6414
193 6563
193 6840
193 6866
193 7408
193 7545
194 758
194 1096
194 1137
194 3058
194 3293
194 5026
194 7003
194 7408
194 7929
195 758
195 6226
196 225
196 231
196 312
196 1004
196 1381
196 1446
196 2086
196 2093
196 2263
196 2864
196 3050
196 3368
196 3373
196 3474
196 3857
196 3924
196 3948
196 5166
196 5328
196 5337
196 5414
196 5747
196 5775
196 5802
196 5856
196 6557
196 6651
196 7012
196 7191
196 7223
196 7363
196 7578
196 8031
196 8049
197 1464
197 3309
197 7161
198 2715
198 3498
198 3685
198 5773
199 6208
200 354
200 579
200 1182
200 1315
200 1419
200 1464
200 1537
200 1681
200 1981
200 2498
200 2862
200 3403
200 3507
200 3679
200 3967
200 4143
200 4543
200 4565
200 4812
200 4884
200 5416
200 5558
200 5838
200 6573
200 6587
200 6735
200 6815
200 6854
200 6885
200 6928
200 6939
200 6943
200 6964
200 6966
200 6970
200 7011
200 7080
200 7276
200 7759
200 7819
200 7963
200 7992
200 8047
201 287
201 332
201 1530
201 1575
201 2014
201 3352
201 3373
201 4189
201 7607
201 7622
202 558
202 718
202 1398
202 1419
202 2598
202 3950
202 5291
202 5308
202 5729
202 7011
202 7398
202 7491
202 7824
202 8197
203 7773
204 515
204 2158
204 2507
204 2839
204 3724
204 3924
204 7440
205 284
205 2445
205 2613
205 7788
206 7615
207 966
207 6270
207 8123
208 4928
209 3744
209 7387
210 3246
210 6204
212 2299
212 4762
213 427
213 450
213 473
213 641
213 740
213 750
213 894
213 1054
213 1290
213 1427
213 1574
213 2122
213 2838
213 2988
213 3034
213 3186
213 3206
213 3580
213 3849
213 4283
213 4489
213 4571
213 4646
213 4946
213 5044
213 5072
213 5446
213 5980
213 6482
213 7191
213 7627
213 8110
213 8170
214 1316
215 1630
215 3465
216 392
216 486
216 604
216 2227
216 3021
216 4051
216 4399
216 4780
216 5329
217 283
217 590
217 1649
217 2266
217 5119
217 6879
218 2363
219 430
219 3580
220 7034
221 1441
222 363
222 626
222 718
222 1289
222 1698
222 2083
222 2930
222 2975
222 3864
222 4607
222 5058
222 5433
222 6062
222 6743
222 7976
223 734
223 925
223 2598
223 5291
223 6656
223 7015
224 358
224 499
224 758
224 851
224 995
224 1125
224 1168
224 1194
224 1601
224 1741
224 1918
224 2200
224 2299
224 2390
224 2648
224 2669
224 2904
224 3104
224 3133
224 3280
224 3293
224 3751
224 4085
224 4115
224 4146
224 4398
224 4464
224 4511
224 4686
224 5026
224 5053
224 5095
224 5136
224 5164
224 5498
224 5610
224 5646
224 5858
224 5933
224 6172
224 6248
224 6259
224 6496
224 6580
224 6866
224 6949
224 7003
224 7041
224 7090
224 7246
224 7391
224 7545
224 7605
224 7608
224 7705
224 7733
224 7902
224 8073
224 8205
224 8216
225 283
225 284
225 310
225 430
225 461
225 492
225 580
225 631
225 655
225 696
225 702
225 825
225 831
225 916
225 924
225 925
225 1052
225 1250
225 1315
225 1427
225 1495
225 1513
225 1539
225 1688
225 1754
225 1878
225 1905
225 2250
225 2266
225 2374
225 2594
225 2598
225 2660
225 2742
225 2759
225 2862
225 2863
225 2957
225 3117
225 3206
225 3270
225 3373
225 3530
225 3581
225 3897
225 3957
225 4222
225 4533
225 4639
225 4644
225 4661
225 4778
225 4793
225 4869
225 5186
225 5212
225 5237
225 5262
225 5291
225 5408
225 5696
225 5713
225 5762
225 5977
225 6194
225 6260
225 6311
225 6382
225 6596
225 6631
225 6656
225 6734
225 6754
225 6775
225 6823
225 6853
225 7015
225 7117
225 7153
225 7167
225 7264
225 7330
225 7360
225 7473
225 7587
225 7592
225 7775
225 7840
225 7900
225 8013
225 8082
225 8149
225 8234
226 4363
227 227
227 925
227 2966
227 6141
228 4581
229 310
229 334
229 368
229 382
229 385
229 448
229 702
229 717
229 955
229 1062
229 1250
229 1289
229 1292
229 1315
229 1398
229 1464
229 1465
229 1479
229 1495
229 1536
229 1634
229 1688
229 1709
229 1905
229 1957
229 2073
229 2101
229 2319
229 2378
229 2494
229 2513
229 2557
229 2665
229 2862
229 3111
229 3200
229 3317
229 3467
229 3658
229 3679
229 3684
229 3957
229 4144
229 4356
229 4460
229 4586
229 4654
229 4661
229 4793
229 4869
229 4877
229 5126
229 5212
229 5342
229 5383
229 5559
229 5906
229 6287
229 6535
229 6573
229 6654
229 6735
229 6748
229 6816
229 6874
229 6939
229 6940
229 6941
229 6966
229 7011
229 7072
229 7080
229 7161
229 7167
229 7188
229 7264
229 7276
229 7360
229 7476
229 7491
229 7527
229 7587
229 7592
229 7691
229 7817
229 7824
229 7935
229 8074
229 8109
229 8162
229 8170
230 7824
231 1163
231 5308
231 6709
232 3908
233 1199
233 1284
233 1350
233 2293
233 3751
233 6843
234 1990
235 317
235 381
235 385
235 684
235 909
235 925
235 957
235 1124
235 1408
235 1464
235 1545
235 2083
235 2308
235 2615
235 2876
235 3453
235 3497
235 3544
235 3825
235 3849
235 4172
235 4190
235 4600
235 4654
235 5618
235 5705
235 5761
235 5894
235 6106
235 6248
235 6425
235 6836
235 7281
235 7373
235 7391
235 7453
235 7467
235 7622
236 758
236 822
236 1652
236 1928
236 2330
236 2904
236 3083
236 3104
236 3751
236 4917
236 5627
236 6180
236 6563
236 6704
236 6949
237 629
237 690
237 1729
237 2296
237 5136
237 5800
237 6111
237 6600
237 8113
238 2456
239 1419
239 1981
239 5383
240 749
240 830
240 1991
240 2001
240 3914
240 5615
240 6464
241 916
241 1047
241 1815
241 4773
241 6836
241 7015
242 1464
243 1176
243 7386
244 310
244 414
244 3882
244 4333
244 4704
244 6632
245 3355
245 5278
245 6842
246 5874
247 1235
248 2353
249 1990
249 6634
250 300
250 759
250 1007
250 1513
250 1865
250 2000
250 3777
250 5115
250 5735
250 6625
250 7391
250 7574
251 1064
251 1748
251 3575
251 4906
251 5012
251 5445
251 5953
251 8158
252 476
252 498
252 966
252 1950
252 2702
252 4294
252 5291
252 5675
252 6270
253 3089
253 7034
254 1175
254 2546
254 4402
255 3088
255 5254
256 1433
256 2540
257 1464
258 5795
259 1068
259 2487
259 3974
259 4346
259 4486
260 1203
260 1250
260 1252
260 3704
260 5661
261 498
261 1129
261 3309
261 4590
261 7465
262 377
262 998
262 1074
262 1596
262 2623
262 3873
262 4093
262 4557
262 5046
262 5073
262 5490
262 5664
262 6006
262 6226
262 6738
262 7478
263 2299
263 3456
263 4249
264 270
264 333
264 436
264 486
264 631
264 734
264 748
264 767
264 825
264 925
264 1058
264 1062
264 1358
264 1465
264 1513
264 1649
264 1740
264 1878
264 1900
264 2059
264 2101
264 2214
264 2320
264 2876
264 2957
264 3019
264 3056
264 3277
264 3355
264 3373
264 3467
264 3589
264 3677
264 3760
264 3865
264 3919
264 3944
264 4210
264 4360
264 4399
264 4404
264 4639
264 4644
264 4717
264 4728
264 5004
264 5108
264 5166
264 5212
264 5220
264 5225
264 5291
264 5308
264 5328
264 5332
264 5342
264 5348
264 5515
264 5526
264 5586
264 5589
264 5642
264 5709
264 5751
264 5854
264 5874
264 6209
264 6267
264 6477
264 6498
264 6701
264 6716
264 6751
264 6836
264 6874
264 6997
264 7015
264 7072
264 7079
264 7096
264 7178
264 7190
264 7276
264 7281
264 7360
264 7366
264 7385
264 7401
264 7406
264 7438
264 7788
264 7960
264 8036
264 8174
265 346
265 1164
265 1466
265 2820
265 3826
265 7047
265 7846
266 1464
266 3089
266 7034
267 612
267 684
267 690
267 822
267 892
267 947
267 1009
267 1227
267 1346
267 1433
267 1511
267 1741
267 2133
267 2234
267 2407
267 2408
267 2540
267 2591
267 3331
267 3580
267 3662
267 3810
267 3884
267 3918
267 3925
267 3994
267 4348
267 4715
267 4722
267 4977
267 5009
267 5121
267 5197
267 5251
267 5261
267 5396
267 5506
267 5546
267 6002
267 6183
267 6381
267 6414
267 6506
267 6809
267 7045
267 7332
267 7727
267 8175
268 2257
269 300
269 1112
269 1792
269 3740
269 4399
269 6625
269 7124
269 7896
270 852
270 1023
270 1316
270 2195
270 2406
270 2529
270 2753
270 3118
270 3644
270 4235
270 5216
270 5816
270 7346
270 7394
270 8123
271 2687
271 4223
271 6443
271 6791
272 4782
273 1865
273 6625
274 2505
274 6654
274 6939
274 7596
274 7597
274 7687
274 7857
274 7870
274 7897
275 1419
275 2407
275 3280
276 631
276 1112
276 2176
276 5013
277 6496
278 1316
279 631
279 925
279 1488
279 2966
279 3118
279 3355
279 3467
279 4586
279 4783
279 5520
279 5764
279 6315
279 6440
279 6656
279 7167
279 7217
279 7587
280 2752
280 7801
280 7850
280 8125
281 655
281 1163
281 1427
281 1513
281 2957
281 3262
281 3849
281 4399
281 5638
281 5735
281 6208
281 6625
281 6628
281 7021
281 7124
281 7276
281 8109
281 8137
281 8162
282 333
282 346
282 498
282 573
282 925
282 1065
282 1163
282 1398
282 1456
282 1465
282 1495
282 1726
282 2014
282 2189
282 2237
282 2264
282 2406
282 2749
282 2823
282 2889
282 3299
282 3309
282 3562
282 3634
282 3678
282 3699
282 3801
282 3823
282 3876
282 4354
282 4533
282 4956
282 5946
282 6134
282 6213
282 6311
282 6373
282 6458
282 6656
282 7012
282 7057
282 7151
282 7161
282 7251
282 7483
282 7515
282 7960
282 8161
283 368
283 476
283 2571
283 2686
283 2976
283 5289
283 5802
283 6158
284 284
284 376
284 498
284 545
284 604
284 699
284 740
284 967
284 1104
284 1356
284 1479
284 1575
284 1744
284 2086
284 2217
284 2367
284 2418
284 2687
284 2688
284 2912
284 2950
284 2977
284 3233
284 3309
284 3373
284 3403
284 3440
284 3467
284 3485
284 3544
284 3722
284 3778
284 3873
284 3924
284 4065
284 4187
284 4189
284 4288
284 4354
284 4368
284 4399
284 4431
284 4654
284 4696
284 4706
284 4804
284 4845
284 5106
284 5211
284 5399
284 5546
284 5612
284 5734
284 5802
284 5887
284 6011
284 6367
284 6586
284 7180
284 7190
284 7281
284 7292
284 7563
284 7919
284 7998
284 8089
284 8110
285 6141
285 8017
286 2239
287 600
287 665
287 2189
287 3141
287 4234
287 4399
287 4992
287 6685
287 7231
287 8139
288 948
288 3008
288 3904
288 4422
288 5053
288 5266
288 5817
288 6031
288 6053
288 6180
288 6299
288 6414
288 7800
288 7929
289 3410
289 5015
290 2583
290 4730
291 690
291 1071
291 1227
291 1433
291 2371
291 2648
291 3925
291 3980
291 5197
291 5396
291 5726
291 6414
291 6619
292 332
292 369
292 5874
293 5328
293 5619
293 6463
293 7204
293 8058
294 632
294 1579
294 2099
294 2337
294 3778
294 3885
294 4399
294 6141
294 6740
294 7515
294 7858
295 923
295 1895
295 2296
295 2390
295 6111
295 6218
295 6895
296 3309
297 1464
298 7217
299 669
299 779
299 1241
299 1419
299 1981
299 2099
299 2406
299 4143
299 5802
299 5874
299 5953
299 6959
299 7406
299 7732
300 393
300 440
300 471
300 495
300 593
300 602
300 763
300 788
300 915
300 1427
300 1916
300 2000
300 2460
300 2628
300 2780
300 2859
300 3021
300 3740
300 3829
300 4066
300 4108
300 4157
300 4166
300 4191
300 4278
300 4416
300 4642
300 4734
300 4924
300 5253
300 5356
300 5451
300 6012
300 6096
300 6443
300 6625
300 6654
300 6705
300 6791
300 6939
300 6946
300 7008
300 7034
300 7565
300 7596
300 7597
300 7687
300 7689
300 7833
300 7839
300 7848
300 7857
300 7870
300 7897
300 7998
300 8197
302 2560
303 676
303 859
303 1265
303 2714
303 3196
303 3232
303 3306
303 5549
303 6240
303 6288
304 471
304 3126
304 3352
304 3703
304 4586
304 5225
304 6118
304 7840
305 3937
306 6421
306 7299
307 3700
307 3914
308 828
308 1552
308 2336
308 5291
308 6694
308 7042
308 7788
309 607
309 4085
309 6739
310 440
310 498
310 616
310 775
310 776
310 879
310 915
310 1013
310 1263
310 1315
310 1496
310 1643
310 1750
310 1846
310 1962
310 2001
310 2073
310 2086
310 2114
310 2217
310 2264
310 2298
310 2367
310 2406
310 2462
310 2598
310 2742
310 2804
310 2881
310 3138
310 3209
310 3286
310 3368
310 3448
310 3463
310 3627
310 3820
310 3871
310 3924
310 3930
310 3974
310 3979
310 4007
310 4018
310 4131
310 4223
310 4341
310 4368
310 4653
310 4695
310 4706
310 4804
310 4949
310 4957
310 5046
310 5112
310 5276
310 5284
310 5306
310 5315
310 5661
310 5742
310 5785
310 5786
310 5887
310 6071
310 6143
310 6243
310 6266
310 6304
310 6327
310 6375
310 6406
310 6557
310 6711
310 6791
310 6806
310 6896
310 6990
310 6996
310 7018
310 7036
310 7054
310 7117
310 7174
310 7197
310 7220
310 7223
310 7235
310 7281
310 7349
310 7385
310 7406
310 7414
310 7562
310 7581
310 7813
310 7841
310 8013
310 8016
310 8031
310 8089
310 8129
311 1264
311 1895
311 3025
311 3751
311 5454
311 5930
312 373
312 430
312 655
312 825
312 831
312 1714
312 2957
312 3924
312 4793
312 4858
312 5291
312 6632
312 6634
312 7015
312 7167
312 7562
312 7734
312 8013
313 430
313 626
313 831
313 1133
313 4087
313 4183
313 4628
313 4793
313 5265
313 7190
313 7562
313 7626
313 7837
314 8243
315 6625
316 4131
316 7217
317 349
317 356
317 471
317 949
317 1071
317 1356
317 1377
317 1464
317 2391
317 2958
317 3203
317 3824
317 4009
317 5582
317 5660
317 6028
317 6481
317 6833
317 6870
317 6939
317 7080
317 7691
317 7990
318 3618
319 690
319 804
319 1471
319 1729
319 1895
319 2540
319 2551
319 3280
319 3533
319 3580
319 3818
319 3925
319 3980
319 4164
319 4258
319 4439
319 4574
319 4689
319 5814
319 6111
319 6172
319 6496
319 6689
319 6845
319 7045
319 7100
319 7444
319 7529
319 7727
319 7729
319 8038
320 718
320 831
320 925
320 1086
320 1479
320 2598
320 2660
320 2957
320 3530
320 4586
320 6632
320 7360
321 586
321 717
321 1289
321 1419
321 3281
321 3891
321 4158
321 4397
321 4399
321 4545
321 4640
321 4706
321 4846
321 5216
321 5373
321 5383
321 5388
321 5594
321 5764
321 7015
321 7848
322 731
322 2109
322 7610
323 3974
323 4701
323 4780
324 4445
325 6634
326 2957
326 5291
327 1194
327 1316
327 1786
327 3521
327 3937
327 4705
327 4713
327 4780
327 5627
327 5996
327 6208
327 6496
327 7012
327 7346
327 7391
327 7605
328 1128
329 3654
330 3130
330 3590
331 1565
331 2406
332 472
332 770
332 1207
332 1209
332 1464
332 2315
332 2649
332 2732
332 2949
332 3003
332 3067
332 3192
332 3206
332 3568
332 3582
332 3826
332 3930
332 4064
332 4640
332 4721
332 4773
332 4974
332 5586
332 5587
332 5860
332 6726
332 6819
332 7235
332 7360
332 7831
332 7835
333 385
333 429
333 498
333 510
333 604
333 631
333 655
333 665
333 732
333 827
333 860
333 925
333 933
333 1152
333 1231
333 1356
333 1381
333 1518
333 1673
333 1829
333 1982
333 2071
333 2093
333 2179
333 2288
333 2406
333 2543
333 2686
333 2687
333 2869
333 3028
333 3106
333 3118
333 3152
333 3166
333 3253
333 3485
333 3530
333 3544
333 3644
333 3765
333 3857
333 3859
333 3873
333 3924
333 4064
333 4093
333 4187
333 4245
333 4368
333 4399
333 4471
333 4578
333 4710
333 4804
333 4992
333 5110
333 5130
333 5216
333 5230
333 5244
333 5612
333 5638
333 5764
333 5785
333 5802
333 5830
333 5914
333 5927
333 5953
333 5966
333 6110
333 6162
333 6188
333 6194
333 6456
333 6616
333 6870
333 7012
333 7015
333 7086
333 7153
333 7164
333 7268
333 7281
333 7406
333 7549
333 7562
333 7586
333 8004
333 8089
334 334
334 368
334 373
334 476
334 493
334 575
334 600
334 604
334 915
334 1057
334 1106
334 1240
334 1289
334 1315
334 1481
334 1990
334 1992
334 2073
334 2179
334 2406
334 2528
334 3118
334 3165
334 3166
334 3281
334 3373
334 3523
334 3530
334 3575
334 3924
334 4100
334 4158
334 4291
334 4578
334 4723
334 4736
334 4755
334 4793
334 4876
334 5004
334 5015
334 5046
334 5212
334 5216
334 5342
334 5480
334 5802
334 5816
334 5830
334 5854
334 5871
334 5874
334 5914
334 6110
334 6162
334 6375
334 6614
334 6655
334 6713
334 6793
334 7235
334 7281
334 7400
334 7555
334 7562
334 7784
334 7937
335 862
335 864
335 1549
335 1803
335 1978
335 2293
335 3104
335 3293
335 3521
335 3566
335 3942
335 4814
335 5287
335 5549
335 6268
335 6739
335 7412
335 7553
335 7605
335 7860
335 7868
336 2099
336 2944
336 7276
336 7421
337 2391
337 2490
337 4586
337 4712
337 5110
337 5638
337 5830
337 6162
337 7012
337 7580
338 2653
339 939
339 1464
339 2408
339 2540
340 367
340 377
340 492
340 652
340 663
340 741
340 774
340 783
340 829
340 873
340 891
340 963
340 1127
340 1169
340 1236
340 1400
340 1472
340 1595
340 1633
340 1701
340 1704
340 1778
340 1934
340 2118
340 2535
340 2617
340 2808
340 2907
340 2911
340 3347
340 3802
340 3909
340 3961
340 3971
340 4039
340 4647
340 4837
340 4930
340 5651
340 5656
340 5684
340 5769
340 5801
340 5975
340 6027
340 6089
340 6298
340 6350
340 6780
340 6849
340 7035
340 7037
340 7329
340 7481
340 7568
340 7619
340 7814
340 7827
340 8163
340 8201
340 8224
341 770
341 3684
342 7034
343 574
343 1315
343 1788
343 1963
343 2093
343 2623
343 2935
343 3108
343 3305
343 3944
343 4101
343 4584
343 4747
343 4892
343 5348
343 5406
343 5593
343 5820
343 6408
343 6784
343 6801
343 7176
343 7352
343 7418
343 7682
343 7855
343 8213
344 6625
344 7124
345 1575
345 1734
345 2059
345 2194
345 3373
345 6409
346 536
346 585
346 631
346 942
346 1064
346 1331
346 1377
346 1388
346 1500
346 2051
346 2199
346 2420
346 2462
346 2565
346 2603
346 2708
346 2720
346 2862
346 2869
346 2915
346 3309
346 3491
346 3653
346 3739
346 3793
346 3916
346 3944
346 4067
346 4186
346 4190
346 4489
346 4566
346 4605
346 4822
346 4955
346 5160
346 5248
346 5251
346 5357
346 5770
346 6097
346 6145
346 6247
346 6295
346 6371
346 6490
346 6833
346 6854
346 7278
346 7394
346 7406
346 7429
346 7588
346 7600
346 7944
346 8047
346 8165
347 349
347 562
347 2875
347 3494
347 3867
347 4199
347 6406
347 6454
347 6507
347 6591
347 7817
348 2652
349 363
349 482
349 547
349 562
349 585
349 604
349 610
349 650
349 718
349 806
349 926
349 973
349 980
349 1134
349 1212
349 1227
349 1433
349 1450
349 1569
349 1741
349 1762
349 1815
349 1892
349 1916
349 2014
349 2020
349 2083
349 2130
349 2303
349 2366
349 2598
349 2635
349 2834
349 2859
349 2876
349 2930
349 3059
349 3089
349 3132
349 3355
349 3720
349 3824
349 4144
349 4178
349 4399
349 4543
349 4860
349 5065
349 5091
349 5187
349 5281
349 5404
349 5424
349 5515
349 5763
349 5773
349 5838
349 5910
349 5924
349 5950
349 5969
349 6022
349 6069
349 6096
349 6157
349 6225
349 6353
349 6368
349 6407
349 6454
349 6627
349 6644
349 6791
349 6827
349 6836
349 6868
349 6883
349 6885
349 6967
349 6970
349 6972
349 7034
349 7226
349 7358
349 7418
349 7520
349 7596
349 7597
349 7613
349 7857
349 7870
349 7897
349 7934
349 8211
350 510
350 982
350 4876
350 6469
351 4143
352 373
352 2141
352 3831
352 7205
353 1419
354 394
354 416
354 631
354 770
354 825
354 1250
354 1315
354 1464
354 1602
354 1754
354 1804
354 1826
354 2378
354 2557
354 2743
354 2845
354 2862
354 2957
354 3118
354 3270
354 3281
354 3317
354 3957
354 4558
354 4586
354 4604
354 4623
354 4773
354 5004
354 5126
354 5186
354 5212
354 5342
354 5383
354 5751
354 6141
354 6634
354 6651
354 6754
354 6874
354 6939
354 6946
354 7011
354 7080
354 7190
354 7264
354 7276
354 7491
354 7587
354 7591
354 7592
354 7596
354 7597
354 7684
354 7687
354 7689
354 7691
354 7720
354 7817
354 7819
354 7824
354 7857
354 7870
354 7897
354 7927
354 7999
354 8071
354 8109
354 8162
355 6408
356 1464
356 1560
356 2498
356 2878
356 3824
356 4009
356 4097
356 4863
356 5661
356 7011
356 7435
356 7922
356 7947
356 8135
357 422
357 1466
357 2121
357 2237
357 4793
357 6685
357 8139
358 607
358 612
358 690
358 731
358 1346
358 1426
358 1741
358 1929
358 2234
358 2408
358 2540
358 2591
358 3005
358 3455
358 3662
358 3768
358 3980
358 4348
358 4445
358 4464
358 4722
358 4934
358 5066
358 5234
358 5338
358 5352
358 5454
358 5546
358 5614
358 5880
358 6211
358 6330
358 6381
358 6802
358 6809
358 7307
358 7394
358 7727
358 8038
359 5291
360 3661
361 562
361 724
361 776
361 788
361 915
361 1315
361 1317
361 1916
361 2086
361 2406
361 2444
361 2580
361 2609
361 3452
361 3691
361 4158
361 4230
361 4736
361 4793
361 5015
361 5391
361 5789
361 6090
361 6791
361 7117
361 7451
362 6382
363 363
363 498
363 834
363 4399
363 4670
364 949
364 1212
364 2219
364 2291
364 4945
364 6735
364 6943
364 7011
364 7235
365 5070
366 587
366 734
366 754
366 844
366 1176
366 2660
366 2759
366 3499
366 4093
366 6022
366 6407
368 413
368 498
368 626
368 631
368 825
368 1150
368 1289
368 1419
368 1464
368 1467
368 1479
368 1604
368 1772
368 1804
368 2091
368 2101
368 2189
368 2266
368 2418
368 2451
368 2809
368 2862
368 2957
368 3242
368 3292
368 3298
368 3315
368 3373
368 3507
368 3871
368 3912
368 4087
368 4487
368 4623
368 4661
368 4834
368 4869
368 4974
368 4997
368 5150
368 5168
368 5212
368 5291
368 5326
368 5661
368 5676
368 5709
368 5906
368 6048
368 6173
368 6269
368 6393
368 6573
368 6675
368 6897
368 6939
368 6986
368 7011
368 7047
368 7072
368 7089
368 7096
368 7110
368 7172
368 7237
368 7276
368 7485
368 7491
368 7516
368 7591
368 7817
368 7831
368 7963
368 7981
368 7998
368 8003
368 8109
368 8159
368 8162
369 376
369 516
369 698
369 770
369 1099
369 1163
369 1209
369 1289
369 1458
369 1484
369 1495
369 1527
369 1772
369 1990
369 2101
369 2115
369 2189
369 2235
369 2291
369 2369
369 2406
369 2537
369 2593
369 2604
369 2698
369 2957
369 2988
369 3308
369 3463
369 3467
369 3485
369 3507
369 3557
369 3691
369 3826
369 4230
369 4394
369 4519
369 4661
369 4773
369 4778
369 4804
369 4850
369 4903
369 4909
369 5122
369 5212
369 5216
369 5305
369 5348
369 5502
369 5519
369 5541
369 5572
369 5661
369 5709
369 5736
369 5745
369 5802
369 5806
369 6363
369 6629
369 6633
369 6810
369 6890
369 6898
369 6915
369 6986
369 7047
369 7133
369 7141
369 7149
369 7241
369 7258
369 7275
369 7305
369 7483
369 7551
369 7592
369 7788
369 7831
369 7839
369 7952
369 8103
369 8129
370 562
370 636
370 7396
371 2313
371 2348
371 5531
371 6047
371 7732
372 925
372 2780
372 4417
373 373
373 429
373 510
373 776
373 925
373 1152
373 1356
373 1381
373 1658
373 2141
373 2266
373 2281
373 2529
373 2687
373 2744
373 3309
373 3361
373 3464
373 3644
373 4399
373 4674
373 4807
373 5621
373 5638
373 5802
373 5927
373 6110
373 6402
373 6542
373 6903
373 7032
373 7477
373 7883
374 1446
375 7824
376 631
376 701
376 702
376 831
376 909
376 925
376 944
376 1878
376 1905
376 1919
376 2071
376 2101
376 2632
376 2822
376 2823
376 2862
376 2957
376 2966
376 3467
376 3499
376 3530
376 3826
376 4486
376 4661
376 4751
376 4773
376 5291
376 5308
376 5408
376 5589
376 6435
376 6596
376 6634
376 6651
376 6656
376 6748
376 7167
376 7840
378 6825
379 1125
379 1182
379 1393
379 2293
379 7621
380 3373
380 4127
380 5046
381 836
381 1455
381 3274
381 6257
381 7034
382 382
382 1962
382 2378
382 3278
382 4399
382 4666
382 5764
382 5952
382 7190
383 7776
384 384
385 498
385 665
385 718
385 1091
385 1152
385 3739
385 3857
385 4187
385 4566
385 4586
385 4751
385 5638
385 5661
385 5785
385 6048
385 6110
385 6304
385 6656
385 6719
385 7012
385 7429
385 7483
385 7840
386 3866
387 2433
388 2720
388 6257
389 1918
389 3537
389 4491
390 2050
390 2127
390 2759
390 2804
390 2856
390 3084
390 5472
390 5887
390 7604
391 702
391 7011
392 394
392 538
392 626
392 698
392 825
392 895
392 908
392 925
392 955
392 1170
392 1203
392 1302
392 1314
392 1315
392 1398
392 1513
392 1548
392 1575
392 1753
392 1865
392 1941
392 2059
392 2073
392 2189
392 2383
392 2542
392 2665
392 2759
392 2862
392 2957
392 2966
392 3022
392 3181
392 3233
392 3355
392 3373
392 3465
392 3497
392 3507
392 3524
392 3769
392 3902
392 4093
392 4160
392 4334
392 4525
392 4586
392 4661
392 4717
392 4778
392 4800
392 4804
392 4872
392 5019
392 5098
392 5151
392 5173
392 5212
392 5243
392 5262
392 5336
392 5410
392 5413
392 5493
392 5586
392 5638
392 5661
392 5688
392 5749
392 5751
392 5762
392 5932
392 5953
392 6080
392 6125
392 6229
392 6383
392 6455
392 6477
392 6512
392 6535
392 6628
392 6651
392 6716
392 6761
392 6819
392 6925
392 7069
392 7071
392 7072
392 7096
392 7114
392 7275
392 7276
392 7292
392 7305
392 7360
392 7396
392 7401
392 7413
392 7473
392 7477
392 7485
392 7564
392 7587
392 7610
392 7788
392 7960
392 8068
392 8137
393 441
393 847
393 962
393 1099
393 1352
393 1408
393 1449
393 1465
393 1811
393 2103
393 2247
393 2262
393 2768
393 2809
393 3087
393 3604
393 3644
393 3691
393 4198
393 4524
393 4903
393 4909
393 4924
393 4938
393 5131
393 5298
393 5607
393 5833
393 5870
393 6698
393 6791
393 6830
393 7149
393 7161
393 7188
393 7474
393 7596
393 7597
393 7857
393 7870
393 7897
394 422
394 429
394 606
394 776
394 925
394 965
394 1001
394 1172
394 1280
394 1315
394 1381
394 1404
394 1437
394 1465
394 1904
394 2051
394 2073
394 2217
394 2448
394 2938
394 2977
394 2987
394 2999
394 3117
394 3118
394 3209
394 3297
394 3309
394 3373
394 3377
394 3644
394 3713
394 3857
394 3873
394 3903
394 3930
394 3979
394 4069
394 4130
394 4131
394 4187
394 4230
394 4354
394 4526
394 4623
394 4653
394 4696
394 4706
394 4723
394 4736
394 4793
394 4804
394 4902
394 5112
394 5156
394 5262
394 5264
394 5308
394 5391
394 5451
394 5802
394 5830
394 5918
394 6000
394 6010
394 6449
394 6530
394 6996
394 7180
394 7190
394 7281
394 7525
394 7653
394 7948
394 8010
395 6352
396 482
396 831
396 1157
396 1177
396 1195
396 2959
396 3657
396 4482
396 4980
396 5709
397 1601
397 1892
398 6374
399 2188
400 2291
401 5296
401 6685
401 8139
402 6779
403 3475
403 6686
404 1176
405 7292
406 406
406 828
406 1552
406 2020
406 2336
406 3342
406 6870
406 7032
406 7082
407 2551
407 5066
408 7284
409 3330
410 6067
411 658
411 1381
411 1382
411 2342
411 2391
411 3573
411 5216
411 5638
411 5996
411 6007
411 6208
411 6276
411 6304
411 6440
411 6792
411 7012
412 925
412 1792
412 1905
412 6244
413 440
413 1195
413 1465
413 1898
413 2768
413 3265
413 3891
413 3924
413 4770
413 4991
413 6791
413 7839
414 1782
414 2045
414 6760
415 2416
416 977
416 4053
417 1189
417 1219
417 1769
417 2271
417 2441
417 2510
417 2995
417 3104
417 3133
417 3491
417 4714
417 5595
417 7181
418 6596
419 1099
419 1289
419 2406
419 2598
419 2834
419 2957
419 3598
419 3774
419 4661
419 5696
419 7023
419 7900
420 4527
421 825
421 2862
421 3474
421 6939
421 7080
421 7276
421 7691
422 425
422 430
422 631
422 638
422 825
422 831
422 916
422 925
422 1062
422 1315
422 1591
422 1600
422 1905
422 2084
422 2101
422 2660
422 2862
422 2863
422 2957
422 3166
422 3206
422 3298
422 3524
422 3900
422 4586
422 4869
422 5273
422 5291
422 5342
422 5696
422 5762
422 5980
422 6535
422 6613
422 6632
422 6656
422 6853
422 6915
422 7190
422 7264
422 7360
422 7587
422 7592
422 7638
422 7840
423 1263
424 1990
424 2059
424 2394
424 2507
425 4586
426 1614
427 1265
427 3389
427 3414
427 4623
427 6226
427 6352
427 6523
427 6806
427 7334
428 524
429 498
429 631
429 655
429 831
429 925
429 1464
429 1634
429 1822
429 2121
429 2266
429 2590
429 2598
429 2957
429 3026
429 3312
429 3593
429 3777
429 3826
429 4256
429 4586
429 4773
429 5291
429 5397
429 5785
429 6631
429 6656
429 7007
429 7047
429 7281
429 7587
429 7840
429 8145
430 430
430 498
430 515
430 655
430 1004
430 1240
430 1356
430 1464
430 1743
430 1748
430 1829
430 1892
430 2072
430 2114
430 2406
430 2598
430 2623
430 3006
430 3054
430 3485
430 3544
430 3575
430 3857
430 3863
430 3873
430 4187
430 4778
430 4857
430 5110
430 5139
430 5295
430 5308
430 5329
430 5414
430 5445
430 5612
430 5638
430 5785
430 5802
430 5856
430 6022
430 6110
430 6304
430 6557
430 6614
430 7164
430 7520
430 7607
430 7771
430 7960
430 8089
430 8200
431 1854
432 624
432 1599
432 1652
432 3083
432 4520
432 5204
432 5610
433 1464
433 2994
434 1002
434 2555
435 1455
435 6482
436 3118
436 7588
437 1376
438 990
438 1033
438 2869
439 499
439 1392
439 1478
439 2995
439 3104
439 3280
439 3616
439 3662
439 4249
439 7492
439 7890
440 448
440 601
440 698
440 717
440 729
440 770
440 1057
440 1138
440 1172
440 1315
440 1419
440 1430
440 1452
440 1754
440 1878
440 2000
440 2096
440 2219
440 2319
440 2378
440 2691
440 2862
440 3270
440 3271
440 3317
440 3658
440 4166
440 4230
440 4654
440 4834
440 5004
440 5071
440 5126
440 5326
440 5383
440 5517
440 5676
440 5885
440 6160
440 6335
440 6372
440 6587
440 6654
440 6735
440 6939
440 6946
440 7021
440 7072
440 7188
440 7235
440 7276
440 7321
440 7381
440 7398
440 7476
440 7584
440 7590
440 7596
440 7597
440 7670
440 7687
440 7691
440 7837
440 7839
440 7857
440 7870
440 7897
440 7998
440 8068
440 8071
440 8197
440 8214
441 543
441 4412
441 5373
442 6997
443 1720
443 2357
443 4139
444 3885
445 1316
445 3089
445 7034
445 7394
446 864
446 1182
446 1284
446 1350
446 1989
446 2293
446 2390
446 2551
446 2700
446 3060
446 3393
446 4610
446 4891
446 4929
446 5087
446 5880
446 6218
446 6248
446 6468
446 6580
446 6663
446 6843
446 7065
446 7102
446 7246
446 7412
446 7517
446 7567
446 7759
446 8015
446 8237
447 1158
447 7487
448 787
448 1172
448 1916
448 1981
448 1992
448 2444
448 2460
448 2787
448 2970
448 3132
448 3270
448 3325
448 3629
448 3891
448 3924
448 4073
448 4158
448 4399
448 4543
448 4565
448 4641
448 4706
448 4991
448 5383
448 5391
448 5451
448 5517
448 5824
448 5871
448 5918
448 6090
448 6573
448 6791
448 6928
448 6965
448 6970
448 7091
448 7190
448 7235
448 7265
448 7276
448 7321
448 7491
448 7670
448 7937
449 3984
449 5680
449 7621
450 3414
450 3700
450 5274
450 5764
450 7096
450 8123
451 742
451 5149
452 1152
452 3632
452 3914
452 5014
452 5615
453 6554
454 7807
455 1419
455 2759
455 3021
455 6791
456 2555
456 3451
456 5546
456 7394
457 556
457 775
457 1283
457 3867
457 4432
457 5143
457 5216
457 5998
457 6141
457 6297
457 6961
457 8262
458 4474
458 5057
459 2876
459 4224
460 1464
461 606
461 747
461 918
461 1057
461 1921
461 2175
461 3365
461 3530
461 3627
461 3748
461 5084
461 5337
461 5414
461 5774
461 5775
461 7275
461 7823
462 501
462 603
462 1616
462 2315
462 2853
462 3582
462 5617
462 6543
462 7055
463 476
464 3452
464 3691
464 3830
464 4206
464 5130
464 7184
465 2295
466 6842
467 1464
468 1181
468 1298
469 925
469 3867
469 7554
469 8233
470 655
470 1075
470 1126
470 1187
470 1481
470 1557
470 1714
470 2179
470 3642
470 4158
470 4279
470 4437
470 4848
470 5138
470 5291
470 5830
470 6032
470 6090
470 6344
470 8144
471 956
471 1356
471 2859
471 3059
471 3203
471 3452
471 3629
471 3824
471 4009
471 4049
471 4157
471 4166
471 4399
471 4416
471 4489
471 4883
471 5253
471 5346
471 5661
471 5835
471 6028
471 6625
471 6654
471 6730
471 6735
471 6763
471 6921
471 6937
471 6939
471 6943
471 6946
471 6947
471 7235
471 7400
471 7550
471 7691
471 7990
471 7998
472 1075
472 2416
472 2643
472 4071
472 6429
473 498
473 1152
473 1643
473 1829
473 2030
473 2093
473 2514
473 2623
473 3414
473 3625
473 3630
473 5110
473 5246
473 5638
473 5785
473 6032
473 6208
473 6406
473 6412
473 6747
473 7012
474 1328
474 1427
474 1865
474 2011
474 3938
474 5291
474 6625
475 2076
476 535
476 636
476 702
476 871
476 877
476 974
476 1004
476 1134
476 1270
476 1308
476 1338
476 1398
476 1419
476 1428
476 1554
476 1575
476 1746
476 1809
476 1936
476 2010
476 2106
476 2138
476 2203
476 2253
476 2488
476 2505
476 2667
476 2788
476 2809
476 2818
476 2992
476 3294
476 3373
476 3403
476 3465
476 3507
476 3558
476 3678
476 3867
476 3924
476 3966
476 3969
476 4039
476 4042
476 4057
476 4088
476 4288
476 4340
476 4504
476 4586
476 4594
476 4617
476 4773
476 4778
476 4997
476 5277
476 5342
476 5348
476 5406
476 5454
476 5670
476 5698
476 5901
476 5984
476 6139
476 6165
476 6311
476 6367
476 6393
476 6429
476 6430
476 6455
476 6741
476 6751
476 6759
476 6760
476 6761
476 6798
476 7025
476 7154
476 7190
476 7275
476 7287
476 7390
476 7392
476 7461
476 7471
476 7491
476 7515
476 7539
476 7587
476 7596
476 7597
476 7653
476 7734
476 7788
476 7857
476 7870
476 7871
476 7897
476 7960
476 8092
476 8188
477 1182
477 3751
478 902
479 2237
479 6718
479 6753
480 4793
480 6616
481 5922
482 482
482 498
482 543
482 729
482 861
482 887
482 949
482 975
482 1207
482 1212
482 1876
482 1930
482 1966
482 2158
482 2181
482 2454
482 2859
482 2958
482 3271
482 3309
482 3639
482 3687
482 3895
482 4137
482 4144
482 4475
482 4700
482 4723
482 4833
482 4846
482 5214
482 5383
482 5422
482 5559
482 5830
482 5835
482 5908
482 6263
482 6386
482 6595
482 6735
482 6862
482 6939
482 6966
482 7021
482 7072
482 7186
482 7188
482 7190
482 7451
482 7525
482 7625
482 7690
482 7740
482 7768
483 1855
483 2091
483 2536
483 6147
483 7400
483 7892
484 3410
485 574
486 925
486 1099
486 1240
486 1271
486 1358
486 1398
486 1464
486 1466
486 1628
486 1806
486 1853
486 1905
486 2320
486 2604
486 2854
486 2894
486 2957
486 3107
486 3355
486 3615
486 4127
486 4519
486 4773
486 5098
486 5291
486 5327
486 5336
486 5344
486 5370
486 5562
486 5790
486 6375
486 6383
486 6535
486 6628
486 6716
486 6925
486 7023
486 7047
486 7055
486 7292
486 7306
486 7360
486 7522
486 7562
486 7707
486 8137
486 8267
487 7190
488 624
488 948
488 1097
488 1125
488 1357
488 1396
488 1549
488 2257
488 2293
488 2415
488 4150
488 4714
488 5053
488 5771
488 7126
488 7181
489 5296
490 6381
491 1590
491 2214
491 3139
491 7047
492 498
492 2753
492 3012
492 3236
492 3885
492 4101
492 5034
492 5207
492 5861
492 6266
492 6315
492 6407
492 8013
493 831
493 1240
493 1826
493 2660
493 2759
493 2862
493 3246
493 3900
493 3944
493 4151
493 4477
493 4640
493 4956
493 5762
493 5997
493 6141
493 6208
493 6372
493 6632
493 7592
493 8170
494 7395
495 631
495 665
495 759
495 1112
495 1266
495 1386
495 1792
495 1865
495 1878
495 2000
495 2043
495 2222
495 2426
495 2460
495 2912
495 2967
495 3131
495 4108
495 4723
495 5134
495 5201
495 5650
495 5827
495 6625
495 7014
495 7124
495 7263
495 7833
495 7896
495 7925
496 5106
497 925
497 1464
497 2562
497 4586
498 510
498 527
498 562
498 574
498 603
498 620
498 631
498 637
498 650
498 658
498 678
498 702
498 718
498 734
498 776
498 788
498 830
498 831
498 866
498 929
498 930
498 931
498 987
498 1013
498 1015
498 1027
498 1075
498 1099
498 1127
498 1134
498 1203
498 1228
498 1253
498 1284
498 1289
498 1352
498 1368
498 1395
498 1408
498 1419
498 1427
498 1446
498 1464
498 1465
498 1479
498 1481
498 1526
498 1539
498 1552
498 1574
498 1597
498 1604
498 1658
498 1671
498 1788
498 1805
498 1812
498 1816
498 1847
498 1858
498 1891
498 1905
498 1919
498 1959
498 2083
498 2101
498 2140
498 2158
498 2212
498 2244
498 2250
498 2363
498 2364
498 2378
498 2403
498 2433
498 2512
498 2513
498 2537
498 2598
498 2628
498 2635
498 2658
498 2669
498 2708
498 2720
498 2743
498 2766
498 2786
498 2804
498 2805
498 2834
498 2845
498 2876
498 2885
498 2890
498 2957
498 3038
498 3056
498 3063
498 3122
498 3210
498 3260
498 3302
498 3355
498 3373
498 3401
498 3407
498 3465
498 3486
498 3499
498 3507
498 3530
498 3537
498 3572
498 3583
498 3609
498 3653
498 3684
498 3885
498 3890
498 3894
498 3897
498 3935
498 3950
498 3957
498 4032
498 4057
498 4087
498 4151
498 4173
498 4181
498 4251
498 4253
498 4291
498 4356
498 4509
498 4545
498 4578
498 4586
498 4598
498 4661
498 4682
498 4736
498 4779
498 4793
498 4804
498 4869
498 4902
498 5042
498 5075
498 5080
498 5084
498 5108
498 5119
498 5171
498 5195
498 5212
498 5262
498 5273
498 5276
498 5303
498 5313
498 5408
498 5416
498 5462
498 5472
498 5515
498 5526
498 5555
498 5567
498 5580
498 5586
498 5593
498 5594
498 5696
498 5699
498 5705
498 5735
498 5745
498 5749
498 5757
498 5763
498 5802
498 5816
498 5818
498 5830
498 5854
498 5885
498 5946
498 5991
498 5997
498 6062
498 6071
498 6077
498 6101
498 6114
498 6157
498 6184
498 6187
498 6205
498 6209
498 6214
498 6259
498 6260
498 6315
498 6332
498 6334
498 6339
498 6343
498 6364
498 6379
498 6410
498 6415
498 6421
498 6482
498 6616
498 6620
498 6626
498 6656
498 6669
498 6672
498 6694
498 6738
498 6825
498 6853
498 6915
498 6916
498 6925
498 6976
498 6997
498 7011
498 7015
498 7033
498 7047
498 7051
498 7079
498 7080
498 7087
498 7212
498 7268
498 7276
498 7285
498 7292
498 7391
498 7467
498 7491
498 7497
498 7508
498 7574
498 7576
498 7587
498 7591
498 7610
498 7632
498 7677
498 7684
498 7691
498 7694
498 7697
498 7720
498 7775
498 7788
498 7840
498 7855
498 7878
498 7922
498 7935
498 7976
498 7987
498 8003
498 8013
498 8047
498 8109
498 8162
499 690
499 1009
499 1316
499 1426
499 2407
499 2408
499 2855
499 3331
499 3662
499 4237
499 4445
499 4689
499 5008
499 5507
499 5546
499 6111
499 6519
499 7332
500 2163
501 505
501 553
501 631
501 788
501 1101
501 1112
501 1122
501 1464
501 1658
501 1865
501 2043
501 2292
501 2361
501 2989
501 3355
501 3408
501 3897
501 4844
501 5148
501 5368
501 5497
501 5735
501 6311
501 6437
501 6877
501 7523
501 7529
501 7574
501 8117
502 636
502 1299
502 1707
502 2598
502 3009
502 4025
502 4593
502 5879
502 7185
502 7473
503 1158
504 5729
505 2853
505 5617
505 6543
506 1997
507 590
507 3298
507 4294
507 4386
508 818
508 1885
508 6756
508 7580
509 1096
509 2806
509 3318
509 5549
509 6686
509 7453
510 607
510 614
510 631
510 831
510 916
510 925
510 933
510 1113
510 1408
510 1539
510 1680
510 1798
510 1919
510 2042
510 2303
510 2364
510 2457
510 2509
510 2543
510 2641
510 2690
510 2702
510 2886
510 3338
510 3507
510 3609
510 3827
510 3867
510 3894
510 4008
510 4101
510 4431
510 4505
510 4572
510 4778
510 5006
510 5024
510 5139
510 5308
510 5472
510 5473
510 5526
510 5859
510 5885
510 6027
510 6050
510 6243
510 6324
510 6339
510 6535
510 6536
510 6821
510 6836
510 6916
510 7011
510 7234
510 7292
510 7373
510 7587
510 7592
510 8170
510 8244
511 817
511 862
511 950
511 1125
511 1153
511 1168
511 1393
511 1419
511 1729
511 1925
511 2310
511 2495
511 2858
511 3175
511 3456
511 3521
511 3710
511 3718
511 3925
511 4464
511 4705
511 4714
511 4843
511 4929
511 5053
511 5456
511 5498
511 5800
511 6224
511 6468
511 6486
511 6580
511 6866
511 7011
511 7026
511 7080
511 7229
511 7276
511 7376
511 7509
511 7591
511 7608
511 7621
511 7646
511 7681
511 7687
511 7689
511 7691
511 7755
511 7824
511 7868
511 7902
511 8109
511 8162
512 1775
513 1459
513 2460
513 5874
514 2609
514 3474
514 4578
514 7012
514 7291
515 825
515 856
515 916
515 992
515 1250
515 1464
515 1548
515 1900
515 1905
515 2502
515 2660
515 2854
515 2862
515 2957
515 3355
515 3524
515 4103
515 4127
515 4778
515 5291
515 5748
515 5762
515 6596
515 6915
515 6925
515 6929
515 7011
515 7080
515 7172
515 7237
515 7264
515 7276
515 7360
515 7562
515 7592
515 7691
515 7707
515 7840
516 2099
516 2454
516 7012
516 7762
516 7768
517 3826
518 5646
519 2460
519 3132
519 7848
520 1464
521 3960
522 7596
522 7597
522 7857
522 7870
522 7897
523 901
523 2506
523 2515
523 3742
523 4963
523 5123
523 5286
523 5701
523 7549
524 1146
524 1658
524 2618
524 3314
524 3772
524 4527
524 6346
524 7670
525 1461
525 1576
526 5729
527 734
527 825
527 850
527 916
527 931
527 1427
527 1708
527 2356
527 2529
527 2716
527 2862
527 3092
527 3355
527 3364
527 3465
527 3618
527 3704
527 3849
527 3995
527 3996
527 4087
527 4177
527 4364
527 4397
527 4639
527 4980
527 5098
527 5346
527 5391
527 5408
527 5410
527 5661
527 5666
527 5790
527 6352
527 6477
527 6596
527 6925
527 7190
527 7222
527 7244
527 7264
527 7562
528 5346
528 6894
529 690
529 731
529 1346
529 1570
529 2330
529 2408
529 2591
529 3309
529 3818
529 3962
529 3980
529 3984
529 4511
529 5046
529 5674
529 6000
529 6031
529 6111
529 7727
530 1419
530 1464
530 3915
530 6951
530 7011
530 7265
530 7276
530 7491
530 8047
530 8109
530 8162
531 731
531 809
531 1464
531 2296
531 2408
531 3836
531 4439
531 4445
531 4977
531 5261
531 5622
531 5674
531 5807
531 5838
531 6506
531 7011
531 7080
531 7276
531 7999
532 907
532 1362
532 1566
532 1905
533 6336
534 1274
534 1316
534 1810
534 1998
534 2311
534 3089
534 3995
534 6103
534 7034
534 7346
535 1429
535 2382
535 2623
535 2864
535 3439
535 3507
535 3835
535 3890
535 3946
535 3957
535 5299
535 5689
535 5997
535 6270
535 6285
535 6454
535 6656
535 6721
535 6836
535 7406
535 7788
535 7900
537 1388
537 2759
538 1280
538 1283
538 2071
538 2753
538 3103
538 3362
538 4347
538 4399
538 6141
538 6226
539 7034
540 1464
540 5761
541 541
541 723
541 825
541 933
541 1088
541 1231
541 1465
541 2624
541 2885
541 3355
541 4468
541 5598
541 5696
541 6075
541 6209
541 6383
541 6577
541 6793
541 7237
541 7264
541 7292
541 7562
541 7587
541 7648
541 7788
543 770
543 807
543 1255
543 1430
543 1465
543 1753
543 1833
543 2469
543 2599
543 2768
543 2938
543 2943
543 3265
543 3443
543 3452
543 3691
543 3699
543 4230
543 4356
543 4623
543 4723
543 4773
543 4824
543 5130
543 5146
543 5212
543 5308
543 5541
543 5709
543 6573
543 6676
543 6819
543 7072
543 7202
543 7241
543 7483
543 7561
543 7654
543 7839
543 7876
543 7921
544 1464
544 1566
544 1798
544 2014
544 2312
544 3653
544 3891
544 4751
544 5397
544 5739
544 6077
544 6256
545 1911
545 4696
545 8089
546 3414
546 7580
547 547
547 1212
547 1356
547 1892
547 2520
547 4786
547 5091
547 5893
547 6682
548 3734
549 2406
550 6267
550 7352
551 591
551 6156
551 7208
552 1128
552 1321
552 2054
552 2217
552 4378
552 5887
552 6165
552 7032
552 7281
553 603
553 6103
553 7580
554 3609
554 5408
555 5996
556 734
556 944
556 955
556 1202
556 1207
556 1315
556 1527
556 1584
556 2112
556 2320
556 2406
556 2632
556 2685
556 2764
556 2896
556 2975
556 3117
556 3463
556 3473
556 3507
556 3857
556 3932
556 4163
556 4366
556 4584
556 4966
556 5012
556 5637
556 5709
556 5802
556 5997
556 6559
556 6748
556 6758
556 6761
556 6810
556 6898
556 6987
556 7083
556 7110
556 7191
556 7242
556 7433
556 7491
556 7582
556 7710
556 7938
556 7979
556 8152
556 8213
556 8221
558 1377
558 1772
558 1898
558 1992
558 2346
558 2406
558 2430
558 2970
558 2972
558 3246
558 3563
558 3627
558 3793
558 4399
558 4596
558 5451
558 6145
558 6908
558 6977
558 7117
558 7478
559 590
559 2367
559 3630
559 4227
559 4833
559 5046
559 5661
559 6456
559 6896
559 7180
559 7562
560 4140
561 776
561 859
561 1781
561 3306
561 6211
562 562
562 622
562 775
562 825
562 861
562 925
562 1139
562 1212
562 1419
562 1427
562 1575
562 1643
562 1798
562 1829
562 1933
562 2217
562 2515
562 2542
562 2557
562 2623
562 2786
562 2958
562 3138
562 3281
562 3292
562 3437
562 3494
562 3499
562 3678
562 3859
562 4044
562 4488
562 4533
562 4778
562 4945
562 5154
562 5230
562 5244
562 5291
562 5346
562 5413
562 5425
562 5757
562 5763
562 5830
562 5874
562 6110
562 6267
562 6311
562 6405
562 6613
562 6791
562 6873
562 7001
562 7034
562 7072
562 7083
562 7281
562 7360
562 7396
562 7587
562 7592
562 7788
562 7840
562 8105
562 8152
563 950
563 2293
563 4929
563 5164
563 5456
563 5800
563 6486
563 6580
563 7132
563 7902
564 5422
565 925
566 7596
566 7597
566 7857
566 7870
566 7897
567 1624
567 4586
567 6915
568 662
568 7938
569 4487
569 4586
569 5098
569 6779
569 6929
569 7190
569 8151
570 709
570 1637
570 3657
570 5273
570 7524
571 2581
572 7373
573 631
573 831
573 1464
573 2957
573 5291
573 5487
573 6836
573 6853
573 6915
573 7615
573 7840
574 574
574 1151
574 1315
574 1323
574 2107
574 2291
574 2368
574 2873
574 3305
574 3309
574 3470
574 3826
574 3902
574 4157
574 4616
574 4747
574 5065
574 5106
574 5119
574 5253
574 5346
574 5564
574 5593
574 5989
574 6283
574 6644
574 6784
574 6792
574 7028
574 7418
574 7587
574 7855
574 7898
575 794
575 825
575 916
575 925
575 960
575 1004
575 1062
575 1315
575 1464
575 1513
575 1597
575 1671
575 2043
575 2250
575 2767
575 2862
575 3355
575 3684
575 3826
575 3874
575 4008
575 4100
575 4101
575 4442
575 4661
575 4721
575 4773
575 4858
575 5218
575 5408
575 5745
575 5762
575 6062
575 6267
575 6454
575 6656
575 6748
575 7096
575 7212
575 7258
575 7264
575 7292
575 7392
575 7964
576 1203
576 2660
576 2856
576 3885
576 5070
577 4991
577 7558
578 939
578 3580
578 4667
578 4964
578 7383
578 7809
579 4256
579 7011
579 7080
579 7387
579 7570
579 7650
579 7683
579 7817
579 7927
579 7941
579 7981
579 8047
580 1028
580 2189
580 2424
580 2687
580 3110
580 4101
580 4399
580 4880
580 5034
580 5207
580 5484
580 6278
580 7032
580 8089
581 2176
582 1942
582 3202
582 7902
583 1337
583 4902
584 3309
585 585
585 587
585 636
585 925
585 998
585 1278
585 1464
585 1507
585 1551
585 1564
585 2406
585 2576
585 2742
585 3653
585 3679
585 3826
585 4399
585 4706
585 5308
585 5661
585 6099
585 7281
585 7292
585 8151
586 1419
586 1464
586 1612
586 2330
586 3418
586 3891
586 3971
586 4356
586 4884
586 4943
586 5592
586 6573
586 6806
586 6852
586 6883
586 6928
586 6940
586 6941
586 7161
586 7226
586 7265
586 7934
586 8103
587 604
587 650
587 654
587 665
587 724
587 930
587 945
587 1029
587 1212
587 1342
587 1450
587 1574
587 1643
587 2014
587 2020
587 2130
587 2250
587 2598
587 2635
587 2823
587 2834
587 3059
587 3069
587 3089
587 3122
587 3132
587 3499
587 3530
587 3653
587 3897
587 3944
587 4189
587 4279
587 4444
587 4489
587 4583
587 4594
587 4823
587 5084
587 5187
587 5400
587 5950
587 6069
587 6353
587 6364
587 6368
587 6418
587 6421
587 6509
587 6820
587 6836
587 6885
587 6967
587 7340
587 8191
588 3404
588 7761
589 2588
589 7711
590 655
590 1905
590 2099
590 2598
590 3530
590 4533
590 5830
590 6632
591 631
591 925
591 1101
591 1112
591 1221
591 1255
591 1464
591 1806
591 2891
591 3072
591 3217
591 3309
591 3408
591 3897
591 4127
591 4294
591 4499
591 5073
591 6311
591 6437
591 7523
591 7529
591 7574
591 7577
591 7587
591 7677
592 919
592 1798
592 3497
592 4586
592 7275
593 602
593 1069
593 1466
593 2315
593 3019
593 3488
593 3691
593 4051
593 4144
593 4416
593 4883
593 5253
593 5835
593 6625
593 7235
593 7848
594 1195
594 6621
595 7591
595 7794
596 1274
596 1465
596 2311
596 3209
596 3661
596 4416
596 5427
596 8207
597 1153
598 3269
598 4084
598 5880
598 6506
598 6742
599 907
599 1203
599 2071
599 2263
599 3373
599 4433
599 7012
599 7562
600 1270
600 2266
600 2470
600 2736
600 3530
600 3957
600 4397
600 5966
600 6587
600 7217
600 7275
601 1315
601 1988
601 4416
601 5770
601 7385
602 759
602 946
602 1165
602 1459
602 1524
602 1843
602 1865
602 2219
602 2470
602 2859
602 3407
602 3550
602 3826
602 3865
602 4710
602 5130
602 5211
602 5212
602 6123
602 6625
602 6735
602 6778
602 6939
602 6943
602 7072
602 7596
602 7597
602 7782
602 7857
602 7870
602 7897
602 7935
602 7998
602 8197
603 631
603 788
603 888
603 1112
603 2043
603 2292
603 2361
603 2989
603 3355
603 3408
603 3897
603 4499
603 4773
603 5148
603 5368
603 5424
603 5497
603 5735
603 6311
603 6877
603 7523
603 7529
603 7574
603 8117
603 8145
604 631
604 664
604 736
604 827
604 916
604 1122
604 1203
604 1250
604 1464
604 1495
604 1535
604 1575
604 1649
604 1671
604 1754
604 2266
604 2377
604 2633
604 2763
604 2863
604 2966
604 3185
604 3355
604 3524
604 3530
604 3618
604 3684
604 3957
604 4057
604 4294
604 4773
604 4945
604 5084
604 5218
604 5379
604 5762
604 5790
604 5946
604 5966
604 5990
604 5997
604 6125
604 6627
604 6748
604 6938
604 6939
604 7021
604 7047
604 7154
604 7264
604 7292
604 7691
604 7840
604 7935
605 7034
606 1466
606 2227
606 2487
606 2624
606 4773
606 5156
606 6685
606 7473
606 7587
606 8139
606 8220
607 624
607 1084
607 1096
607 1194
607 1228
607 1316
607 1439
607 1533
607 1599
607 1607
607 1928
607 2120
607 2271
607 2310
607 3025
607 3180
607 3290
607 3306
607 3521
607 3596
607 3681
607 3758
607 3800
607 3860
607 3927
607 4115
607 4310
607 4459
607 4656
607 4673
607 4686
607 4714
607 4814
607 4929
607 5111
607 5251
607 5284
607 5294
607 5549
607 5569
607 5646
607 6033
607 6211
607 6240
607 6248
607 6414
607 6468
607 6496
607 6580
607 6686
607 7090
607 7122
607 7246
607 7376
607 7391
607 7393
607 7394
607 7553
607 7646
607 7733
607 7780
607 7854
607 8208
607 8255
608 2441
608 2904
608 3662
608 7090
609 7198
610 796
610 1763
610 2151
610 2209
610 2303
610 3797
610 3799
610 4607
610 5035
610 5138
610 5351
610 6310
610 6336
610 6662
610 6995
610 7269
610 7488
611 845
611 902
612 624
612 1125
612 1182
612 1219
612 1448
612 1599
612 1657
612 1684
612 1758
612 1925
612 1928
612 1977
612 2005
612 2105
612 2257
612 2271
612 2293
612 2611
612 2669
612 2715
612 2995
612 3008
612 3102
612 3133
612 3293
612 3306
612 3538
612 3566
612 3603
612 3651
612 3710
612 3718
612 3747
612 3884
612 4085
612 4155
612 4514
612 4599
612 4686
612 4929
612 4947
612 4990
612 5078
612 5095
612 5171
612 5498
612 5610
612 5632
612 5646
612 5726
612 5843
612 6033
612 6268
612 6349
612 6724
612 7041
612 7246
612 7332
612 7372
612 7412
612 7460
612 7733
612 7902
612 7937
613 5816
613 6407
614 1344
614 1673
614 2071
614 2447
614 6160
615 2020
615 7082
616 4586
616 4626
616 4644
616 7015
616 7167
616 7190
617 5291
618 6110
619 629
619 690
619 1009
619 1167
619 1346
619 1663
619 2133
619 2296
619 2408
619 4164
619 5546
619 5726
619 6111
619 7727
620 620
620 925
620 2509
620 5412
620 7178
620 8151
621 3373
622 1029
622 1792
622 3309
622 4158
622 4294
622 4578
622 4618
622 4723
622 5830
623 1526
624 690
624 782
624 1009
624 1227
624 1370
624 1433
624 1741
624 2407
624 2709
624 3055
624 3580
624 3662
624 3810
624 3818
624 3825
624 3925
624 4155
624 4326
624 4445
624 5067
624 5215
624 5507
624 5546
624 5674
624 5726
624 6002
624 6179
624 6218
624 6389
624 6683
624 7383
624 7500
624 7727
624 8175
624 8255
625 5996
626 653
626 772
626 820
626 836
626 909
626 1064
626 1577
626 1619
626 1961
626 2251
626 2346
626 2369
626 3372
626 3435
626 3778
626 3859
626 3864
626 4399
626 4569
626 4646
626 4954
626 5495
626 5632
626 5701
626 5933
626 6242
626 6285
626 6511
626 6983
626 7335
626 7355
626 8046
627 7011
627 7276
628 2390
629 758
629 995
629 1000
629 1089
629 1125
629 1284
629 1400
629 1652
629 1840
629 1874
629 1893
629 1928
629 1952
629 2200
629 2257
629 2293
629 2299
629 2415
629 2555
629 2669
629 2715
629 3025
629 3280
629 3293
629 3318
629 3521
629 3566
629 3600
629 3603
629 3751
629 3818
629 3965
629 4115
629 4398
629 4445
629 4485
629 4588
629 4814
629 4929
629 4950
629 5053
629 5066
629 5164
629 5171
629 5202
629 5266
629 5444
629 5601
629 5678
629 5716
629 5771
629 5814
629 5824
629 5831
629 6031
629 6053
629 6111
629 6180
629 6321
629 6336
629 6349
629 6381
629 6468
629 6496
629 6704
629 6724
629 6949
629 7031
629 7041
629 7122
629 7181
629 7187
629 7246
629 7272
629 7318
629 7332
629 7391
629 7412
629 7481
629 7509
629 7676
629 7733
629 7929
629 8029
629 8053
629 8119
630 1464
630 1990
630 2598
631 631
631 718
631 732
631 776
631 825
631 905
631 925
631 937
631 1046
631 1074
631 1112
631 1231
631 1240
631 1381
631 1382
631 1464
631 1487
631 1513
631 1527
631 1616
631 1643
631 1801
631 1816
631 1829
631 1963
631 2001
631 2074
631 2086
631 2101
631 2114
631 2195
631 2217
631 2367
631 2406
631 2576
631 2636
631 2687
631 2742
631 2853
631 2911
631 2938
631 3165
631 3219
631 3355
631 3485
631 3494
631 3507
631 3530
631 3544
631 3575
631 3618
631 3644
631 3684
631 3726
631 3730
631 3846
631 3857
631 3860
631 3867
631 3873
631 3924
631 3952
631 4229
631 4291
631 4303
631 4329
631 4368
631 4469
631 4496
631 4515
631 4637
631 4661
631 4688
631 4693
631 4773
631 4833
631 4967
631 4993
631 5046
631 5075
631 5135
631 5138
631 5212
631 5379
631 5484
631 5576
631 5606
631 5617
631 5638
631 5661
631 5691
631 5696
631 5742
631 5762
631 5802
631 5830
631 5854
631 5905
631 5946
631 5953
631 5990
631 6032
631 6034
631 6082
631 6101
631 6194
631 6208
631 6304
631 6339
631 6388
631 6393
631 6405
631 6406
631 6415
631 6454
631 6543
631 6651
631 6656
631 6711
631 6763
631 6806
631 6827
631 6842
631 6915
631 6988
631 7015
631 7054
631 7083
631 7191
631 7197
631 7248
631 7268
631 7275
631 7281
631 7286
631 7287
631 7400
631 7406
631 7485
631 7555
631 7562
631 7592
631 7786
631 8016
631 8089
631 8122
631 8149
631 8152
631 8158
632 4264
632 4723
632 5914
632 7385
632 7463
632 7578
632 8158
633 3225
634 3818
634 7614
635 3194
635 4370
635 4840
636 1595
636 1804
636 2957
636 3373
636 4081
636 4294
636 4296
636 4470
636 4578
636 4668
636 5816
636 6634
636 7275
637 734
637 916
637 997
637 2071
637 2263
637 2613
637 2641
637 2660
637 2759
637 2801
637 3530
637 3700
637 3849
637 4227
637 4872
637 4980
637 5291
637 5661
637 5762
637 6188
637 6477
637 6596
637 6791
637 6975
637 7051
637 7292
637 7562
637 7840
639 1464
639 4773
639 5965
639 7276
640 831
640 909
640 1099
640 4586
640 4701
640 5291
640 5342
642 2869
642 3485
642 6827
642 8142
643 1010
643 1357
643 3054
644 969
644 2001
644 2834
645 6141
646 664
646 2748
646 3826
647 8142
648 3456
649 1361
649 1476
649 1596
649 3641
649 5555
649 5683
649 6738
649 7364
649 8251
650 650
650 655
650 925
650 1356
650 1464
650 2020
650 2199
650 2394
650 2598
650 2687
650 2834
650 2876
650 3237
650 3309
650 3544
650 3592
650 3644
650 3722
650 4189
650 4399
650 4412
650 4586
650 5679
650 6071
650 6269
650 6627
650 6711
650 7292
651 1350
652 825
652 2862
652 2957
652 5291
652 5885
652 6634
652 7011
652 7080
652 7276
652 7292
652 7688
652 7817
652 7824
652 7999
652 8109
652 8162
652 8170
654 3644
654 7161
655 718
655 732
655 909
655 916
655 925
655 933
655 937
655 1122
655 1231
655 1356
655 1427
655 1465
655 1507
655 1619
655 1643
655 1822
655 1826
655 1900
655 2086
655 2140
655 2189
655 2266
655 2281
655 2391
655 2406
655 2543
655 2598
655 2632
655 2660
655 2957
655 3004
655 3022
655 3147
655 3166
655 3389
655 3485
655 3513
655 3528
655 3530
655 3575
655 3700
655 3849
655 3857
655 3873
655 4187
655 4347
655 4778
655 4788
655 4795
655 4800
655 4804
655 4833
655 5005
655 5024
655 5110
655 5219
655 5244
655 5291
655 5612
655 5638
655 5785
655 5856
655 5996
655 6011
655 6194
655 6267
655 6280
655 6390
655 6433
655 6557
655 6596
655 6651
655 6656
655 6784
655 6833
655 7005
655 7012
655 7015
655 7164
655 7191
655 7235
655 7281
655 7520
655 7562
655 7587
655 7672
655 7788
655 8004
655 8031
656 8181
657 1464
658 658
658 769
658 825
658 1212
658 1427
658 1518
658 1714
658 1826
658 2290
658 2560
658 2609
658 2862
658 3277
658 3281
658 3291
658 3489
658 3530
658 3539
658 4011
658 4316
658 4496
658 4758
658 4773
658 5189
658 5232
658 5375
658 5738
658 5869
658 5935
658 6550
658 6753
658 6906
658 6923
658 6924
658 6995
658 7029
658 7080
658 7190
658 7234
658 7264
658 7276
658 7286
658 7360
658 7541
658 7592
658 7689
658 7824
658 8109
658 8162
659 925
659 1366
659 1826
659 1905
659 2660
659 2996
659 3867
659 4654
659 5348
659 5761
659 7011
659 7042
659 7360
659 7684
659 7720
659 8170
660 925
660 1805
660 2178
660 2509
660 2867
660 3216
660 4654
660 5065
660 5593
660 6184
660 7042
660 7656
660 7672
660 7855
660 7898
661 1352
661 1811
661 2219
661 3019
661 4475
661 6372
661 6625
661 6939
663 809
663 825
663 909
663 1419
663 1634
663 1804
663 2862
663 2863
663 2957
663 3684
663 5676
663 6939
663 7080
663 7276
663 7292
663 7687
663 7689
663 7824
663 8109
663 8162
663 8170
664 1029
664 4578
664 5729
664 7012
665 734
665 825
665 855
665 872
665 916
665 1013
665 1028
665 1433
665 1882
665 2001
665 2093
665 2263
665 2266
665 2362
665 2394
665 2557
665 2660
665 2759
665 2862
665 3070
665 3103
665 3107
665 3181
665 3356
665 3507
665 3524
665 3544
665 3618
665 3700
665 3849
665 3945
665 4087
665 4101
665 4268
665 4400
665 4433
665 4513
665 4525
665 4533
665 4956
665 4971
665 4992
665 5084
665 5166
665 5386
665 5472
665 5661
665 5749
665 5758
665 5761
665 5762
665 5856
665 5997
665 6162
665 6280
665 6477
665 6614
665 6627
665 7214
665 7264
665 7281
665 7562
665 7592
665 7655
665 7694
665 7770
665 7840
665 7958
665 8031
666 7587
667 916
667 5761
668 1474
669 669
669 841
669 925
669 965
669 1078
669 1270
669 1315
669 1464
669 1481
669 2189
669 2291
669 2475
669 2680
669 2768
669 3031
669 3118
669 3128
669 3217
669 3309
669 3826
669 4011
669 4078
669 4171
669 4192
669 4368
669 4773
669 4957
669 5276
669 5348
669 5975
669 6287
669 6662
669 6701
669 6713
669 6729
669 6836
669 7058
669 7207
669 7241
669 7619
669 7797
669 8103
669 8158
670 2408
671 2555
671 3060
671 8062
672 3256
672 8057
673 5566
674 776
674 1192
674 2890
674 3196
674 3232
674 3306
674 4387
674 4656
674 4960
674 5284
674 5549
674 6211
675 5414
676 946
676 2378
676 2546
676 2635
677 1189
677 3329
677 5053
678 2158
678 2159
678 3644
678 5232
678 5738
678 8144
679 3480
680 714
680 4878
680 7515
681 1826
681 5273
681 6930
681 7011
681 7080
681 7158
681 7276
681 7591
681 7632
681 7819
681 7824
681 7943
681 7999
681 8047
682 3849
683 7360
684 684
684 1696
684 1925
684 2293
684 2296
684 2715
684 3336
684 4445
684 4794
684 4977
684 5646
684 6180
684 6183
684 7181
684 7399
684 7412
684 7621
684 7801
684 8119
684 8218
685 956
685 2266
685 3495
685 3629
685 3684
685 4354
685 5037
685 5212
685 6372
685 6379
685 6546
685 6573
686 3063
686 5826
687 2150
687 2540
687 3825
687 4348
687 7503
688 8042
689 2183
690 733
690 758
690 804
690 851
690 862
690 864
690 865
690 872
690 880
690 904
690 932
690 939
690 948
690 957
690 995
690 1000
690 1089
690 1097
690 1182
690 1183
690 1189
690 1199
690 1219
690 1228
690 1261
690 1285
690 1304
690 1350
690 1400
690 1406
690 1462
690 1482
690 1514
690 1549
690 1599
690 1620
690 1641
690 1684
690 1736
690 1803
690 1820
690 1821
690 1870
690 1893
690 1925
690 1977
690 1978
690 2033
690 2105
690 2119
690 2200
690 2257
690 2277
690 2293
690 2299
690 2318
690 2330
690 2379
690 2390
690 2415
690 2421
690 2441
690 2495
690 2524
690 2544
690 2569
690 2611
690 2619
690 2669
690 2700
690 2795
690 2850
690 2858
690 2865
690 2904
690 2906
690 2917
690 2960
690 2962
690 2964
690 2995
690 3008
690 3058
690 3102
690 3104
690 3151
690 3153
690 3175
690 3230
690 3260
690 3293
690 3318
690 3346
690 3393
690 3427
690 3438
690 3451
690 3521
690 3532
690 3596
690 3603
690 3725
690 3749
690 3750
690 3751
690 3758
690 3816
690 3833
690 3884
690 3904
690 3925
690 3965
690 4030
690 4085
690 4125
690 4145
690 4150
690 4214
690 4249
690 4383
690 4398
690 4422
690 4443
690 4464
690 4512
690 4551
690 4570
690 4573
690 4574
690 4575
690 4588
690 4595
690 4599
690 4613
690 4665
690 4686
690 4705
690 4713
690 4715
690 4814
690 4917
690 4929
690 4947
690 4950
690 4958
690 4968
690 4990
690 4994
690 5026
690 5031
690 5053
690 5095
690 5133
690 5136
690 5164
690 5171
690 5204
690 5266
690 5314
690 5354
690 5358
690 5424
690 5444
690 5468
690 5498
690 5500
690 5507
690 5518
690 5549
690 5551
690 5570
690 5601
690 5610
690 5627
690 5641
690 5678
690 5680
690 5726
690 5771
690 5788
690 5800
690 5817
690 5824
690 5831
690 5832
690 5846
690 5858
690 5913
690 5933
690 5945
690 5957
690 6003
690 6004
690 6014
690 6031
690 6053
690 6111
690 6140
690 6180
690 6185
690 6207
690 6230
690 6248
690 6259
690 6271
690 6321
690 6326
690 6336
690 6349
690 6414
690 6468
690 6489
690 6496
690 6563
690 6574
690 6580
690 6617
690 6659
690 6696
690 6699
690 6704
690 6715
690 6724
690 6767
690 6843
690 6857
690 6866
690 6867
690 6904
690 6907
690 6948
690 6954
690 6985
690 7003
690 7031
690 7090
690 7125
690 7126
690 7132
690 7181
690 7187
690 7192
690 7224
690 7272
690 7332
690 7372
690 7376
690 7391
690 7406
690 7408
690 7448
690 7453
690 7481
690 7487
690 7496
690 7503
690 7545
690 7553
690 7605
690 7608
690 7621
690 7637
690 7646
690 7676
690 7698
690 7705
690 7722
690 7727
690 7729
690 7736
690 7738
690 7776
690 7800
690 7801
690 7811
690 7860
690 7886
690 7902
690 7929
690 7937
690 7974
690 7991
690 8029
690 8053
690 8073
690 8116
690 8119
690 8216
691 6763
692 1925
693 702
693 825
693 1419
693 1709
693 2862
693 3684
693 3881
693 5370
693 6587
693 7011
693 7541
693 7683
694 1357
694 5678
694 6053
695 695
695 764
695 2542
695 2919
695 4505
695 4966
695 5198
695 5348
695 7385
696 1381
696 2159
696 2281
696 2406
696 3246
696 3373
696 3389
696 4736
696 4804
696 5012
696 5342
696 7292
697 2783
697 4399
697 5480
697 6105
697 7075
697 7215
697 7662
697 7750
697 7843
697 8006
698 698
698 1106
698 2076
698 2462
698 2859
698 3209
698 3979
698 4144
698 4641
698 4991
698 5130
698 5186
698 5211
698 5455
698 6266
698 6351
698 6759
698 6791
698 6874
698 7034
698 7180
698 7281
698 7385
698 7555
699 3364
699 3902
699 5291
699 7276
699 7734
700 6374
701 701
701 925
701 1822
701 2179
701 2444
701 2708
701 3115
701 3212
701 4399
701 4546
701 4773
701 5603
701 6077
701 6253
701 6314
701 7190
702 706
702 886
702 915
702 1074
702 1240
702 1289
702 1315
702 1404
702 1496
702 1981
702 2053
702 2125
702 2424
702 2911
702 2918
702 2970
702 3281
702 3582
702 3683
702 3860
702 3924
702 4158
702 4167
702 4223
702 4526
702 4565
702 4682
702 4736
702 4967
702 5138
702 5416
702 5738
702 5757
702 5918
702 6041
702 6090
702 6110
702 6357
702 6713
702 6829
702 6990
702 7096
702 7180
702 7274
702 7491
702 7692
702 7937
702 8089
703 1464
703 3309
703 4399
704 4586
705 6013
705 7079
705 7794
706 6941
706 7684
706 7691
706 7720
706 7817
706 7824
706 7927
706 8109
706 8162
707 1464
708 2240
708 2435
709 825
709 916
709 992
709 1798
709 2660
709 2782
709 3257
709 3502
709 3676
709 3703
709 4312
709 5697
709 5762
709 7208
709 7485
709 7706
709 8168
710 6374
711 4773
712 2540
712 3580
712 3768
712 3925
712 3980
712 4439
712 5674
713 3590
713 6901
714 3199
714 3607
714 4294
714 6427
715 720
715 2073
715 4586
716 7563
717 1916
717 1930
717 3262
717 4565
717 5757
717 5909
717 6928
717 6939
717 7191
717 7230
717 7491
717 7824
717 8114
718 718
718 1018
718 1100
718 1112
718 1212
718 1356
718 1449
718 1612
718 1816
718 1829
718 1892
718 2300
718 2416
718 2885
718 3028
718 3530
718 3592
718 3686
718 3732
718 3787
718 3837
718 3857
718 3873
718 3905
718 4100
718 4289
718 4339
718 4589
718 4826
718 5056
718 5309
718 5315
718 5396
718 5661
718 5755
718 5914
718 6174
718 6416
718 6613
718 7050
718 7123
718 7281
718 7385
718 7645
718 7787
718 7789
718 7849
718 7908
718 8004
718 8190
719 3678
720 1240
720 1250
720 1878
720 1949
720 1950
720 2320
720 2378
720 2860
720 3087
720 3089
720 3355
720 4773
720 5336
720 5344
720 5562
720 5694
720 5713
720 6625
720 6815
720 6942
720 7034
720 7190
720 7252
720 7840
721 1189
721 2271
721 7386
721 7646
721 7731
721 8069
722 4071
722 4560
722 4586
722 6634
722 6760
724 2724
724 3447
724 5342
724 6754
725 3823
725 3826
725 4346
725 4773
725 5967
725 6032
725 6046
725 7173
726 1745
727 4773
727 5308
727 5857
727 7217
728 1099
729 1106
729 1465
729 1981
729 2444
729 3691
729 3902
729 3979
729 4223
729 4734
729 4991
729 5427
729 5918
729 7478
730 1419
730 6141
731 948
731 1084
731 1769
731 1892
731 1918
731 2669
731 3717
731 4115
731 4485
731 4792
731 4814
731 4843
731 4888
731 4946
731 5266
731 5290
731 5957
731 6336
731 6468
731 7125
731 7621
731 7985
731 8216
732 734
732 831
732 916
732 1112
732 1137
732 1250
732 1289
732 1900
732 1919
732 1951
732 2101
732 2189
732 2533
732 2632
732 2798
732 3355
732 3423
732 3467
732 3944
732 3977
732 4127
732 4533
732 4572
732 4586
732 4661
732 4778
732 5262
732 5661
732 5932
732 5946
732 5953
732 6456
732 6632
732 6812
732 6859
732 7042
732 7096
732 7281
732 7467
732 7501
732 7840
733 897
733 1346
733 3432
733 3925
733 3980
733 4293
733 4511
733 5234
733 5552
733 6002
733 6127
734 855
734 1013
734 1222
734 1323
734 1342
734 1777
734 1864
734 2016
734 2362
734 2413
734 2636
734 2839
734 2869
734 3122
734 3166
734 3253
734 3356
734 3530
734 3682
734 3873
734 3954
734 4064
734 4093
734 4103
734 4141
734 4513
734 4696
734 4793
734 5084
734 5166
734 5216
734 5667
734 5697
734 5758
734 5802
734 5875
734 5927
734 5997
734 6190
734 6194
734 6201
734 6238
734 6433
734 6900
734 7012
734 7268
734 7515
734 7562
734 8158
735 1112
735 3373
736 1992
736 2179
736 2623
736 3246
736 3275
736 3309
736 3653
736 3867
736 4069
736 4712
736 5187
736 5308
736 5697
736 5802
736 6406
736 6632
736 6793
736 7451
736 7900
736 8013
737 2598
738 738
738 1240
738 2298
738 3995
738 6141
739 916
740 940
740 1245
740 1321
740 2614
740 2683
740 2744
740 3372
740 3414
740 3463
740 3512
740 3944
740 4812
740 5255
740 5481
740 5621
740 5715
740 5716
740 5791
740 5946
740 6273
740 6407
740 6417
740 6459
740 6989
740 7064
740 7150
740 7155
740 7281
740 7516
741 5874
741 7525
743 825
743 2862
743 4586
743 5885
743 6141
743 7276
743 7292
743 7587
743 8109
743 8162
744 3187
745 864
745 1194
745 1925
745 2964
745 3104
745 5489
745 5726
746 1316
747 831
747 2966
747 3504
747 5291
747 6206
747 7587
748 836
748 3219
748 4203
748 4294
748 4780
748 5216
748 6158
748 6208
748 6990
750 1988
750 2879
750 3954
750 4489
750 4723
750 5854
750 6208
751 925
752 6137
753 1337
754 980
754 1194
754 1316
754 1803
754 1925
754 3089
754 3293
754 3456
754 4814
754 6414
754 6468
754 7034
754 7346
754 7608
755 1112
755 1876
755 2180
755 4074
755 6851
756 7042
757 5824
758 817
758 897
758 939
758 1009
758 1234
758 1291
758 1346
758 1478
758 1599
758 1729
758 1803
758 1895
758 2277
758 2314
758 2408
758 2540
758 2551
758 2555
758 3008
758 3456
758 3600
758 3665
758 3818
758 3925
758 4115
758 4214
758 4445
758 4464
758 4613
758 4667
758 4990
758 5120
758 5121
758 5136
758 5192
758 5197
758 5266
758 5622
758 5913
758 5951
758 6111
758 6218
758 6563
758 6567
758 6799
758 7100
758 7646
758 7712
758 7929
758 8116
759 763
759 980
759 3089
759 4108
759 5647
759 7034
759 7733
759 8111
760 6433
761 831
761 1099
761 1243
761 1806
761 2598
761 2957
761 3107
761 3530
761 4586
761 4778
761 5253
761 5291
761 5342
761 5762
761 6853
761 7562
761 7615
762 3033
762 6120
763 1865
763 2000
763 2426
763 2967
763 2989
763 3700
763 4773
763 5735
763 6071
763 6494
763 6625
764 1289
764 2583
764 2838
764 3849
764 5080
764 6071
764 6260
764 6482
764 6930
764 6997
764 7011
764 7276
764 7788
764 7878
765 944
766 5638
767 881
767 909
767 1062
767 1064
767 1128
767 1315
767 1464
767 1826
767 2397
767 2542
767 2845
767 2876
767 3867
767 3957
767 4192
767 4199
767 4586
767 5216
767 5348
767 5929
767 6784
767 7140
767 7244
767 7276
767 7939
768 1621
769 847
769 1315
769 1419
769 1465
769 2077
769 2086
769 2589
769 3826
769 4166
769 4527
769 4770
769 5212
769 5515
769 5607
769 5764
769 5870
769 6587
769 6654
769 6938
769 6939
769 7276
769 7596
769 7597
769 7788
769 7857
769 7870
769 7897
769 7998
770 776
770 873
770 1280
770 1315
770 1373
770 1419
770 1459
770 1527
770 1536
770 1537
770 1610
770 1688
770 1740
770 1804
770 1826
770 1843
770 1876
770 1930
770 1962
770 1976
770 1981
770 1990
770 1992
770 2051
770 2059
770 2073
770 2099
770 2372
770 2383
770 2418
770 2462
770 2481
770 2594
770 2708
770 2869
770 3087
770 3118
770 3270
770 3281
770 3407
770 3463
770 3793
770 3979
770 4073
770 4144
770 4166
770 4223
770 4291
770 4475
770 4545
770 4560
770 4677
770 4723
770 4736
770 4846
770 4991
770 5004
770 5044
770 5046
770 5126
770 5214
770 5308
770 5328
770 5373
770 5424
770 5451
770 5462
770 5515
770 5642
770 5694
770 5764
770 6024
770 6145
770 6178
770 6266
770 6328
770 6383
770 6587
770 6634
770 6791
770 6874
770 6939
770 6943
770 6947
770 7072
770 7196
770 7257
770 7276
770 7385
770 7478
770 7576
770 7596
770 7597
770 7625
770 7661
770 7670
770 7687
770 7689
770 7839
770 7848
770 7857
770 7870
770 7897
770 8036
770 8067
770 8070
771 860
771 881
771 1464
771 1466
771 3995
772 7011
772 7034
772 7276
773 6071
774 2921
774 7011
775 2250
775 2716
775 4793
775 5291
775 6997
775 7012
775 7190
775 7465
776 788
776 791
776 808
776 825
776 866
776 916
776 957
776 991
776 1062
776 1079
776 1099
776 1124
776 1125
776 1170
776 1178
776 1207
776 1217
776 1284
776 1289
776 1315
776 1348
776 1352
776 1357
776 1398
776 1476
776 1481
776 1544
776 1622
776 1732
776 1758
776 1810
776 1916
776 1935
776 1959
776 2174
776 2194
776 2208
776 2266
776 2320
776 2378
776 2418
776 2445
776 2481
776 2559
776 2598
776 2615
776 2752
776 2759
776 2769
776 2848
776 2922
776 2931
776 2953
776 2957
776 2966
776 3013
776 3035
776 3115
776 3183
776 3202
776 3232
776 3236
776 3355
776 3390
776 3392
776 3455
776 3527
776 3544
776 3593
776 3654
776 3734
776 3852
776 3897
776 3931
776 3974
776 4057
776 4093
776 4334
776 4346
776 4425
776 4487
776 4539
776 4585
776 4589
776 4598
776 4661
776 4722
776 4734
776 4773
776 4793
776 4901
776 4965
776 5050
776 5127
776 5146
776 5168
776 5171
776 5216
776 5262
776 5291
776 5478
776 5512
776 5515
776 5562
776 5674
776 5678
776 5748
776 5754
776 5757
776 5816
776 5929
776 5932
776 5993
776 6110
776 6129
776 6160
776 6234
776 6259
776 6382
776 6389
776 6393
776 6410
776 6569
776 6656
776 6658
776 6733
776 6997
776 7178
776 7185
776 7190
776 7212
776 7324
776 7391
776 7395
776 7453
776 7467
776 7562
776 7648
776 7685
776 8012
776 8217
777 2109
777 2314
777 2540
777 3925
777 4445
777 5674
778 7639
779 798
779 1138
779 1464
779 1707
779 2182
779 2862
779 3684
779 4143
779 4356
779 4834
779 4943
779 5505
779 6883
779 6937
779 6941
779 6946
779 6966
779 7011
779 7080
779 7190
779 7265
779 7276
779 7398
779 7591
779 7632
779 7691
779 7719
779 7759
779 7822
779 7824
779 7934
779 8003
779 8047
779 8109
779 8162
779 8170
780 8047
781 1195
781 1598
781 6457
782 862
782 939
782 1125
782 1137
782 1803
782 1928
782 1978
782 2995
782 3015
782 3318
782 3451
782 3747
782 3937
782 4080
782 4150
782 4398
782 4511
782 4686
782 4946
782 4990
782 5020
782 5549
782 5601
782 5646
782 5726
782 5832
782 5933
782 6036
782 6617
782 6935
782 6949
782 7013
782 7041
782 7332
782 7448
782 7545
782 7621
782 7637
782 7641
782 7738
782 7776
782 7811
782 8053
782 8124
782 8180
782 8216
783 2293
784 6866
785 2609
786 3392
786 7562
787 825
787 5291
787 7117
787 7691
787 8071
788 814
788 1029
788 1062
788 1207
788 1209
788 1250
788 1255
788 1402
788 1419
788 1430
788 1490
788 1616
788 1626
788 1634
788 1804
788 1833
788 1941
788 1998
788 2076
788 2119
788 2293
788 2311
788 2430
788 2481
788 2498
788 2746
788 2768
788 2853
788 3221
788 3317
788 3355
788 3523
788 3574
788 3679
788 3691
788 3871
788 4230
788 4233
788 4394
788 4539
788 4623
788 4642
788 4661
788 4706
788 4740
788 4789
788 4850
788 4985
788 5112
788 5114
788 5211
788 5212
788 5422
788 5427
788 5428
788 5606
788 5607
788 5610
788 5631
788 5709
788 5859
788 5870
788 5990
788 6162
788 6267
788 6545
788 6573
788 6625
788 6653
788 6654
788 6705
788 6735
788 6784
788 6791
788 6938
788 6943
788 7072
788 7161
788 7167
788 7178
788 7188
788 7191
788 7235
788 7281
788 7553
788 7670
788 7839
788 7935
788 7963
788 7998
788 8044
788 8071
788 8097
788 8197
789 1346
789 3089
789 6111
790 1676
790 2167
791 961
791 1002
791 1035
791 1096
791 1665
791 1892
791 2088
791 2521
791 2816
791 3238
791 3935
791 4623
791 4792
791 5251
791 5785
793 3792
793 5612
793 6719
793 7118
793 7352
793 7482
794 1377
794 2743
794 4036
794 4093
794 5764
794 5881
794 6162
794 6194
794 6652
795 1234
795 2133
795 2407
795 2540
795 2551
795 3032
795 3092
795 3331
795 3733
795 3818
795 4939
795 4977
795 5121
795 5176
795 5234
795 5563
795 5674
795 6689
795 7747
795 7851
797 2291
798 873
798 1210
798 1419
798 1820
798 1981
798 3891
798 4543
798 4811
798 5416
798 5558
798 5572
798 5838
798 6633
798 6852
798 6854
798 6883
798 6885
798 6928
798 6967
798 6972
798 7171
798 7226
798 7441
798 7570
798 7649
798 7683
798 7937
798 7950
799 1310
799 2415
799 2616
799 3102
799 3427
799 4715
799 4950
799 5053
799 5706
799 5800
799 6163
799 6489
799 7705
799 7722
799 7811
799 7929
800 1027
801 1382
801 1404
801 2406
801 3103
801 4368
801 5156
801 5638
802 3089
802 7034
803 3883
804 822
804 1367
804 3104
804 3140
804 3260
804 3280
804 4464
804 4968
804 5053
804 5358
804 5398
804 5454
804 5478
804 5507
804 5706
804 5800
804 6496
804 6574
804 7553
804 7610
804 7722
804 8053
804 8136
805 7248
806 806
806 1464
806 2020
806 2537
806 3309
806 4778
806 5253
806 6368
806 6730
806 6894
806 7242
806 8211
807 4073
807 5130
807 5874
807 7385
808 2671
808 3440
808 4880
808 5108
808 5834
808 7190
808 7636
809 809
809 846
809 935
809 1972
809 2751
809 2775
809 2911
809 3057
809 3362
809 3901
809 4686
809 4760
809 4822
809 5111
809 5416
809 5484
809 5558
809 5991
809 6165
809 6852
809 6885
809 6964
809 7226
809 7719
809 7804
809 8047
810 1186
811 5383
811 6024
811 6270
811 7927
812 812
812 2071
812 2756
812 4093
812 4399
812 7281
812 7334
813 3141
814 1419
814 4073
814 4230
814 4399
814 4976
814 5004
814 7661
814 7670
815 886
816 5279
817 914
817 2296
817 7105
817 7543
818 818
818 1885
818 2001
818 4452
819 925
819 1064
819 2072
819 2227
819 4780
820 1163
820 1901
820 6559
820 6894
820 7242
821 3364
821 5337
821 5775
822 873
822 1137
822 1211
822 1370
822 1426
822 1769
822 1893
822 2149
822 2408
822 2551
822 2587
822 3280
822 3451
822 3616
822 3652
822 3707
822 3818
822 3980
822 4028
822 4164
822 4445
822 5009
822 5077
822 5136
822 5204
822 5454
822 5498
822 5563
822 5877
822 6019
822 6111
822 6155
822 6268
822 6519
822 6598
822 6659
822 6767
822 6845
822 6907
822 7090
822 7100
822 7105
822 7144
822 7159
822 7187
822 7646
822 7678
822 7737
822 7902
822 8216
823 2001
824 2296
824 3489
824 7500
825 857
825 873
825 933
825 937
825 998
825 1074
825 1098
825 1172
825 1240
825 1289
825 1347
825 1351
825 1354
825 1381
825 1382
825 1404
825 1419
825 1446
825 1466
825 1537
825 1575
825 1600
825 1681
825 1691
825 1806
825 1888
825 1941
825 1981
825 1992
825 2019
825 2059
825 2072
825 2073
825 2086
825 2114
825 2179
825 2198
825 2211
825 2214
825 2217
825 2241
825 2281
825 2360
825 2367
825 2404
825 2406
825 2458
825 2481
825 2489
825 2501
825 2529
825 2543
825 2575
825 2609
825 2623
825 2650
825 2672
825 2711
825 2733
825 2742
825 2783
825 2804
825 2823
825 2869
825 2877
825 2882
825 2887
825 2900
825 2911
825 2918
825 2928
825 2938
825 2970
825 2972
825 2977
825 2987
825 3039
825 3049
825 3057
825 3063
825 3067
825 3078
825 3103
825 3122
825 3126
825 3210
825 3229
825 3275
825 3281
825 3325
825 3332
825 3356
825 3428
825 3437
825 3457
825 3528
825 3530
825 3575
825 3627
825 3644
825 3857
825 3873
825 3891
825 3924
825 3979
825 4007
825 4143
825 4223
825 4291
825 4347
825 4392
825 4424
825 4458
825 4471
825 4482
825 4483
825 4515
825 4554
825 4557
825 4565
825 4578
825 4590
825 4608
825 4653
825 4679
825 4686
825 4696
825 4706
825 4710
825 4730
825 4755
825 4804
825 4811
825 4812
825 4929
825 4943
825 4983
825 5046
825 5110
825 5284
825 5308
825 5365
825 5366
825 5413
825 5416
825 5483
825 5484
825 5521
825 5571
825 5658
825 5659
825 5660
825 5661
825 5662
825 5667
825 5668
825 5669
825 5671
825 5676
825 5697
825 5758
825 5802
825 5854
825 5856
825 5871
825 5887
825 5903
825 5953
825 6000
825 6023
825 6051
825 6090
825 6145
825 6187
825 6208
825 6352
825 6375
825 6404
825 6420
825 6442
825 6465
825 6485
825 6530
825 6601
825 6711
825 6763
825 6782
825 6791
825 6800
825 6806
825 6817
825 6854
825 6860
825 6864
825 6896
825 6908
825 6953
825 6990
825 6996
825 7032
825 7060
825 7075
825 7096
825 7137
825 7164
825 7200
825 7206
825 7214
825 7226
825 7233
825 7268
825 7276
825 7349
825 7369
825 7401
825 7406
825 7478
825 7562
825 7591
825 7630
825 7631
825 7634
825 7649
825 7652
825 7662
825 7713
825 7719
825 7785
825 7927
825 7970
825 7982
825 7992
825 8016
825 8089
825 8243
826 1006
826 1515
826 2159
826 2285
826 2480
826 4586
826 5397
826 5914
826 5925
827 1382
827 1465
827 1495
827 1602
827 1741
827 1912
827 2001
827 2266
827 2557
827 2684
827 2965
827 3270
827 3392
827 3507
827 3849
827 4006
827 4100
827 4300
827 4621
827 4778
827 4867
827 5212
827 5218
827 5262
827 5269
827 5294
827 5308
827 5329
827 5340
827 5433
827 5567
827 5946
827 6372
827 6613
827 6632
827 7473
827 7680
827 8114
828 1121
828 2312
828 3335
828 4401
830 830
830 1174
830 1464
830 1906
830 2915
830 4773
830 4861
830 4878
830 7251
831 907
831 967
831 998
831 1004
831 1121
831 1231
831 1240
831 1280
831 1381
831 1382
831 1673
831 1717
831 1743
831 1829
831 1939
831 2073
831 2086
831 2114
831 2179
831 2189
831 2217
831 2406
831 2458
831 2529
831 2623
831 2687
831 3028
831 3154
831 3166
831 3446
831 3463
831 3485
831 3575
831 3857
831 3873
831 4187
831 4303
831 4337
831 4368
831 4594
831 4696
831 4804
831 5046
831 5110
831 5219
831 5275
831 5329
831 5366
831 5373
831 5612
831 5638
831 5802
831 5854
831 5953
831 6032
831 6110
831 6208
831 6406
831 6412
831 6456
831 6719
831 7012
831 7164
831 7176
831 7199
831 7206
831 7268
831 7302
831 7406
831 7841
831 8031
831 8083
831 8089
831 8158
832 2686
832 4709
833 7937
834 1015
834 2975
834 4650
834 7918
835 5433
836 852
836 2313
836 3250
836 4681
836 5108
836 5291
836 5430
836 6152
837 4187
838 3721
838 4445
838 5546
838 5956
839 4069
840 2763
841 5276
842 1350
843 6779
843 7034
844 916
844 1356
844 1530
844 1709
844 5696
844 5749
845 1274
845 1490
845 1998
845 2311
845 2444
845 2515
845 2571
845 2859
845 3019
845 3265
845 3661
845 4144
845 4623
845 5004
845 5517
846 1826
846 4133
846 6976
846 7080
846 7190
846 7276
847 847
847 1356
847 1408
847 1459
847 1465
847 1981
847 2000
847 2130
847 2460
847 3019
847 3132
847 3209
847 3528
847 3582
847 3661
847 3691
847 3912
847 3926
847 4416
847 4475
847 4833
847 4883
847 5517
847 5874
847 6126
847 6331
847 6561
847 7385
847 7596
847 7597
847 7848
847 7857
847 7870
847 7897
848 6111
849 7335
851 2540
851 3015
851 3160
851 3179
851 3280
851 3451
851 3818
851 4445
851 4715
851 4931
851 5009
851 5066
851 5197
851 5234
851 5261
851 5464
851 5552
851 5788
851 6218
851 6381
851 6414
851 6799
851 6802
851 6922
851 8124
852 889
852 1101
852 1133
852 1250
852 1314
852 1315
852 1467
852 1708
852 1809
852 2053
852 2115
852 2237
852 2266
852 2424
852 2430
852 2445
852 2598
852 2607
852 3117
852 3118
852 3206
852 3265
852 3392
852 3467
852 3634
852 3700
852 4360
852 4374
852 4486
852 4625
852 4645
852 4661
852 4773
852 5060
852 5071
852 5379
852 5661
852 5709
852 6017
852 6100
852 6110
852 6276
852 6426
852 6656
852 6816
852 6927
852 7217
852 7287
852 7527
852 7648
852 7775
852 7865
852 8158
853 1659
854 7727
855 2660
855 2759
855 2957
855 3069
855 3700
855 5291
855 5822
855 6535
855 7281
855 7840
856 2358
856 4778
856 6791
856 7214
857 2296
858 2406
858 2414
858 2876
858 3089
858 4397
858 4594
858 4708
858 5873
858 6625
858 6651
858 6698
858 7034
858 7275
858 7823
859 859
859 916
859 1044
859 1124
859 1357
859 1641
859 1924
859 2297
859 2437
859 2615
859 2890
859 3965
859 3993
859 4600
859 4792
859 5171
859 5545
859 6259
859 6275
859 7278
859 7533
859 8107
860 1058
860 1178
860 1464
860 1545
860 1919
860 1950
860 2382
860 2957
860 3206
860 3456
860 3944
860 4533
860 4661
860 5291
860 5763
860 5874
860 6401
860 6836
860 7587
860 7615
860 7788
860 7866
860 7909
860 8174
861 1062
861 1315
861 1419
861 1464
861 1537
861 1826
861 1930
861 1981
861 2182
861 2804
861 3057
861 3281
861 3407
861 3506
861 3507
861 3684
861 3860
861 3891
861 3895
861 4143
861 4192
861 4199
861 4356
861 4487
861 4674
861 4793
861 4811
861 4812
861 4943
861 5212
861 5691
861 5838
861 6041
861 6573
861 6941
861 6967
861 7011
861 7080
861 7190
861 7276
861 7292
861 7670
861 7688
861 7689
861 7817
861 7822
861 7934
861 7935
861 7963
861 7992
861 8047
861 8109
861 8159
861 8162
862 1351
862 1895
862 2021
862 2314
862 2540
862 2551
862 2921
862 3580
862 3662
862 3818
862 3980
862 3984
862 4164
862 4439
862 4445
862 4574
862 4977
862 5197
862 5233
862 5563
862 5674
862 5726
862 6111
862 6336
862 6431
862 6520
862 6683
862 7372
862 7529
862 7727
862 8066
863 1990
863 4586
863 6162
864 897
864 1116
864 1426
864 1570
864 1729
864 1922
864 2296
864 2408
864 2551
864 3015
864 3060
864 3284
864 3510
864 3711
864 4226
864 4348
864 4445
864 4516
864 4561
864 4866
864 5020
864 5066
864 5338
864 5396
864 5880
864 6218
864 6480
864 6506
864 6689
864 7318
864 7751
864 8001
864 8124
865 2133
866 1013
866 1647
866 2158
866 2202
866 4399
866 4618
866 5127
866 6315
866 7335
866 8214
867 5928
868 3230
868 7929
869 6355
869 7894
870 2108
870 3979
871 2266
871 2845
871 3233
871 3373
871 6248
871 6656
871 6696
871 7391
872 892
872 1212
872 1227
872 1291
872 1406
872 1519
872 1741
872 2296
872 2408
872 2510
872 2540
872 3427
872 3718
872 3722
872 3925
872 4368
872 4433
872 5498
872 5552
872 5774
872 6111
872 7553
872 7801
872 7811
873 1419
873 1464
873 1466
873 1526
873 1975
873 2133
873 2182
873 2441
873 2573
873 3521
873 3574
873 3684
873 3891
873 3895
873 4356
873 4852
873 5106
873 5383
873 5454
873 5592
873 5660
873 5674
873 5885
873 5905
873 6381
873 6393
873 6894
873 6941
873 6964
873 7011
873 7235
873 7276
873 7292
873 7466
873 7491
873 7592
873 7727
873 7824
873 7935
873 7963
873 8047
873 8114
873 8151
874 965
874 2019
874 2746
874 7775
874 7832
875 1788
875 5065
876 1826
876 2060
876 2417
876 7011
876 8109
876 8162
877 1149
877 1400
877 6563
877 7099
877 7553
877 7605
877 7738
878 1426
879 3118
879 3166
879 5216
879 5346
879 5515
879 5594
879 6791
879 7275
880 1346
880 1371
880 1424
880 1570
880 1803
880 2296
880 2408
880 2540
880 3039
880 3937
880 4445
880 4501
880 4977
880 5066
880 5121
880 5197
880 6414
880 6799
880 6802
880 7506
880 7618
880 8205
881 1021
881 1292
881 1293
881 1315
881 1612
881 1618
881 1714
881 1806
881 2073
881 2114
881 2346
881 2406
881 2708
881 3021
881 3118
881 3334
881 3930
881 4368
881 4526
881 4804
881 5012
881 5046
881 5155
881 5342
881 5802
881 5953
881 6383
881 6621
881 7243
881 7395
881 7406
881 7478
881 7498
881 7821
881 8016
882 1346
882 1529
882 2133
882 2408
882 2540
882 2777
882 3580
882 3818
882 3980
882 3984
882 4445
882 4574
882 4939
882 5162
882 5546
882 5552
882 5726
882 6031
882 6519
882 6689
882 6723
882 6802
882 7666
883 2759
884 1464
884 3309
885 2466
886 1004
886 1062
886 1086
886 1099
886 1250
886 1302
886 1804
886 1896
886 1990
886 2101
886 2294
886 2378
886 2406
886 2598
886 2944
886 3107
886 3117
886 3118
886 3463
886 3507
886 3880
886 3958
886 4100
886 4169
886 4360
886 4482
886 4586
886 4594
886 4623
886 4661
886 5065
886 5216
886 5291
886 5642
886 6267
886 6656
886 6823
886 7072
886 7334
886 7473
886 7632
886 7638
886 7939
886 8014
886 8036
886 8188
887 4399
888 4682
889 3775
890 2121
890 2687
891 925
891 1315
891 1464
891 2121
891 4199
891 5761
892 1651
892 1741
892 2425
892 2510
892 2834
892 2966
892 4399
892 5266
892 5498
892 5716
892 6975
892 8264
893 992
893 3219
893 3828
893 4469
893 6158
895 925
895 1255
895 1315
895 2121
895 2869
895 3454
895 4586
895 4623
895 5802
895 5854
895 6226
895 6791
895 7588
895 7871
896 1192
896 1319
896 1892
896 1983
896 2569
896 2813
896 3214
896 3232
896 3309
896 3475
896 4248
896 5020
896 5086
896 5288
896 5352
896 6381
896 6799
897 1219
897 1599
897 1769
897 2119
897 2390
897 2407
897 2777
897 2995
897 3008
897 3651
897 3717
897 3884
897 4115
897 4185
897 4349
897 4929
897 4950
897 4990
897 5026
897 5646
897 5726
897 5771
897 5788
897 5824
897 6259
897 6265
897 6414
897 6468
897 6715
897 6739
897 7013
897 7122
897 7412
897 7492
897 7733
897 7755
897 7800
897 7890
897 7902
897 7937
898 8138
899 1709
899 7011
900 1004
900 2487
900 3528
900 5864
900 7164
901 4399
901 5701
902 1315
902 1513
902 1792
902 1826
902 2219
902 2264
902 2542
902 2667
902 2687
902 3243
902 3873
902 4239
902 4469
902 4761
902 5193
902 5397
902 6393
902 7788
903 3823
904 1009
904 1821
904 1895
904 2551
904 3280
904 4348
904 4574
904 5020
904 5086
904 5197
904 5552
904 5674
904 6381
904 6802
904 7100
905 3744
905 5037
905 5472
905 7164
905 7281
905 7473
906 1536
906 7661
907 1530
907 2505
907 2759
907 2862
907 3624
907 3924
907 5997
907 6125
907 6685
907 6925
907 7281
907 7610
907 8139
908 1250
908 2071
908 2481
908 4712
908 5830
908 6162
908 6652
909 935
909 1356
909 1381
909 1439
909 1499
909 1612
909 1714
909 2093
909 2783
909 2823
909 2828
909 2977
909 3006
909 3057
909 3494
909 3544
909 3575
909 3653
909 3867
909 3957
909 4187
909 4199
909 4481
909 4653
909 4686
909 4688
909 4696
909 4795
909 4804
909 4813
909 4957
909 5010
909 5023
909 5110
909 5135
909 5198
909 5212
909 5317
909 5484
909 5585
909 5661
909 5691
909 5710
909 5741
909 5742
909 5757
909 5760
909 5763
909 5854
909 6008
909 6048
909 6090
909 6148
909 6165
909 6186
909 6243
909 6291
909 6303
909 6339
909 6375
909 6507
909 6719
909 6988
909 6993
909 7011
909 7015
909 7057
909 7130
909 7164
909 7203
909 7232
909 7255
909 7276
909 7281
909 7286
909 7321
909 7406
909 7587
909 7591
909 7632
909 7927
909 8016
909 8031
909 8051
909 8061
909 8083
909 8089
909 8126
909 8233
909 8269
910 2509
910 3309
910 4399
911 2636
911 3356
911 3627
911 3899
911 5445
912 1575
912 2502
912 3103
912 3373
912 5774
913 3089
913 4477
913 7034
914 1928
914 4085
914 4990
914 6779
914 7034
915 1086
915 1099
915 1250
915 1300
915 1315
915 1380
915 1513
915 1709
915 1822
915 1826
915 1988
915 2219
915 2378
915 2768
915 2863
915 3118
915 3270
915 3317
915 3467
915 3930
915 3957
915 4057
915 4166
915 4191
915 4223
915 4255
915 4291
915 4416
915 4654
915 5015
915 5126
915 5253
915 5342
915 5515
915 5594
915 5642
915 6335
915 6587
915 6591
915 6625
915 6705
915 6735
915 6754
915 6874
915 6938
915 6939
915 6943
915 6946
915 7072
915 7276
915 7360
915 7381
915 7396
915 7555
915 7596
915 7597
915 7680
915 7687
915 7689
915 7691
915 7822
915 7857
915 7870
915 7897
915 7998
915 8036
915 8071
915 8149
916 925
916 965
916 967
916 982
916 1004
916 1098
916 1245
916 1250
916 1280
916 1382
916 1398
916 1439
916 1446
916 1530
916 1558
916 1600
916 1638
916 1743
916 1822
916 1829
916 2071
916 2073
916 2179
916 2263
916 2281
916 2395
916 2458
916 2515
916 2801
916 2823
916 2828
916 2918
916 3034
916 3069
916 3103
916 3116
916 3118
916 3196
916 3253
916 3356
916 3485
916 3530
916 3575
916 3630
916 3644
916 3704
916 3903
916 3924
916 4064
916 4093
916 4187
916 4368
916 4433
916 4586
916 4608
916 4792
916 4803
916 4804
916 5046
916 5119
916 5138
916 5166
916 5216
916 5228
916 5263
916 5284
916 5342
916 5366
916 5562
916 5569
916 5638
916 5711
916 5758
916 5764
916 5774
916 5802
916 5816
916 5854
916 5897
916 5914
916 5916
916 5928
916 6028
916 6048
916 6069
916 6110
916 6162
916 6188
916 6194
916 6200
916 6238
916 6315
916 6351
916 6352
916 6375
916 6383
916 6456
916 6485
916 6557
916 6711
916 6800
916 6989
916 7015
916 7180
916 7201
916 7268
916 7281
916 7363
916 7400
916 7406
916 7520
916 7562
916 7607
916 7652
916 7713
916 7900
916 8004
916 8049
916 8083
916 8089
916 8123
916 8158
917 4991
918 944
918 3544
918 3826
920 3873
920 6342
921 5834
921 7636
922 1172
922 1352
922 1465
922 6372
922 6625
922 7839
923 1111
924 1231
924 1283
924 1464
924 2051
924 4842
924 4954
924 6989
925 925
925 930
925 967
925 977
925 982
925 985
925 1004
925 1040
925 1087
925 1203
925 1226
925 1231
925 1240
925 1280
925 1289
925 1315
925 1323
925 1328
925 1333
925 1382
925 1398
925 1421
925 1429
925 1438
925 1453
925 1464
925 1476
925 1593
925 1618
925 1673
925 1732
925 1735
925 1761
925 1792
925 1816
925 1829
925 1892
925 1959
925 1963
925 1982
925 1996
925 2012
925 2032
925 2079
925 2158
925 2159
925 2178
925 2179
925 2190
925 2195
925 2208
925 2214
925 2227
925 2280
925 2287
925 2298
925 2309
925 2326
925 2367
925 2374
925 2391
925 2406
925 2414
925 2437
925 2447
925 2521
925 2522
925 2590
925 2687
925 2695
925 2708
925 2759
925 2798
925 2804
925 2826
925 2845
925 2848
925 2873
925 2893
925 2910
925 2915
925 2969
925 2972
925 2977
925 3007
925 3050
925 3054
925 3056
925 3087
925 3148
925 3172
925 3209
925 3219
925 3249
925 3254
925 3313
925 3321
925 3355
925 3356
925 3377
925 3421
925 3463
925 3494
925 3499
925 3501
925 3527
925 3528
925 3529
925 3537
925 3572
925 3575
925 3581
925 3626
925 3635
925 3642
925 3653
925 3657
925 3713
925 3726
925 3778
925 3859
925 3863
925 3872
925 3938
925 3944
925 3974
925 3993
925 3995
925 4014
925 4020
925 4071
925 4087
925 4093
925 4151
925 4168
925 4187
925 4253
925 4281
925 4291
925 4368
925 4505
925 4586
925 4591
925 4594
925 4645
925 4695
925 4750
925 4773
925 4804
925 4808
925 4823
925 4899
925 4921
925 4932
925 5012
925 5098
925 5110
925 5182
925 5195
925 5209
925 5211
925 5216
925 5232
925 5237
925 5244
925 5295
925 5322
925 5336
925 5422
925 5433
925 5462
925 5490
925 5567
925 5606
925 5612
925 5617
925 5638
925 5678
925 5738
925 5747
925 5760
925 5767
925 5785
925 5802
925 5830
925 5854
925 5866
925 5887
925 5912
925 5914
925 5946
925 5953
925 5969
925 5996
925 6000
925 6032
925 6048
925 6050
925 6074
925 6082
925 6101
925 6110
925 6114
925 6156
925 6157
925 6158
925 6186
925 6208
925 6315
925 6319
925 6324
925 6325
925 6352
925 6375
925 6415
925 6482
925 6507
925 6548
925 6601
925 6614
925 6627
925 6651
925 6656
925 6711
925 6738
925 6747
925 6749
925 6770
925 6793
925 6833
925 6870
925 6887
925 6918
925 6940
925 6950
925 6993
925 7005
925 7015
925 7022
925 7029
925 7087
925 7160
925 7164
925 7191
925 7206
925 7210
925 7252
925 7283
925 7286
925 7315
925 7352
925 7434
925 7482
925 7484
925 7508
925 7524
925 7535
925 7616
925 7648
925 7656
925 7677
925 7771
925 7775
925 7784
925 7884
925 7900
925 8051
925 8052
925 8063
925 8083
925 8089
925 8142
925 8158
925 8187
926 926
926 1282
926 1356
926 1792
926 1944
926 3309
926 3474
926 3826
926 5927
926 6415
927 3092
927 4056
927 4348
927 4667
928 3025
929 1057
929 1673
929 1829
929 3544
929 5515
929 6591
929 8089
930 1212
930 2001
930 2509
930 7178
931 2001
931 2406
931 4368
931 4473
931 6645
931 7059
931 7158
933 1170
933 2598
933 2764
933 2966
933 3373
933 3377
933 3518
933 3530
933 3866
933 3897
933 4093
933 4461
933 4655
933 4667
933 4966
933 5291
933 5618
933 5661
933 5749
933 5764
933 5979
933 6282
933 6464
933 6634
933 6756
933 6763
933 6842
933 7217
933 7381
933 7587
934 8005
935 1826
935 2862
935 2957
935 3684
935 4852
935 5660
935 5762
935 7011
935 7080
935 7276
935 7591
935 7592
935 7632
935 7684
935 7720
935 7824
935 7927
935 8109
935 8162
936 3190
937 1513
937 2250
937 2756
937 2957
937 3537
937 3944
937 4586
937 4793
937 5106
937 5273
937 5764
937 6793
937 6853
937 7788
937 7881
938 4586
939 995
939 1009
939 1084
939 1153
939 1194
939 1228
939 1769
939 2105
939 2133
939 2271
939 2379
939 2407
939 2544
939 2858
939 3104
939 3280
939 3293
939 3427
939 3491
939 3566
939 3794
939 3818
939 3884
939 3984
939 4052
939 4146
939 4443
939 4476
939 4514
939 4732
939 4843
939 4947
939 5133
939 5454
939 5489
939 5498
939 5595
939 5641
939 5674
939 5788
939 5797
939 5957
939 6111
939 6155
939 6259
939 6381
939 6715
939 6949
939 7097
939 7246
939 7890
940 940
940 1612
940 1804
940 4069
940 4399
940 6212
940 6976
940 7632
941 7011
941 7276
942 942
942 1398
942 1431
942 1445
942 1464
942 2440
942 5151
942 6275
943 7788
944 2490
944 3276
944 3392
944 3455
944 3860
944 4131
944 4451
944 4460
944 4584
944 5951
944 6110
944 7180
944 7555
944 7563
944 7578
944 7753
944 8104
944 8213
945 945
945 1212
945 1963
945 4101
945 4331
945 4475
945 5074
945 5346
945 6694
945 6801
945 7358
945 7386
946 4378
946 5890
946 6625
946 7124
947 995
947 1111
947 1125
947 1189
947 1291
947 1599
947 1769
947 1803
947 1820
947 1893
947 1925
947 2133
947 2257
947 2271
947 2293
947 2390
947 2408
947 2441
947 2495
947 2540
947 2611
947 2715
947 2995
947 3102
947 3104
947 3161
947 3272
947 3280
947 3293
947 3316
947 3336
947 3498
947 3521
947 3651
947 3725
947 3747
947 3884
947 3937
947 4028
947 4084
947 4150
947 4249
947 4514
947 4686
947 4714
947 4814
947 4929
947 4947
947 4950
947 4977
947 5171
947 5284
947 5454
947 5498
947 5646
947 5740
947 5773
947 5793
947 6129
947 6163
947 6218
947 6299
947 6349
947 6414
947 6468
947 6580
947 6724
947 6739
947 6866
947 6907
947 7122
947 7246
947 7372
947 7376
947 7412
947 7492
947 7605
947 7621
947 7860
947 7902
947 7929
947 7991
947 8265
948 1346
948 1433
948 2133
948 2149
948 2407
948 2408
948 2540
948 2777
948 3280
948 3810
948 4164
948 4715
948 5233
948 5234
948 5546
948 5675
948 5726
948 6002
948 6111
948 6489
948 8175
949 1123
949 2324
949 2367
949 2859
949 4144
949 5427
949 6096
949 6178
950 1464
950 2068
950 2408
950 2916
950 3280
950 4445
950 4511
950 4561
950 4782
950 6498
950 7048
950 7332
950 7747
951 1056
951 2880
951 4390
951 4696
951 5918
953 1523
954 2314
955 1829
955 2073
955 2481
955 3867
955 3891
955 3924
955 4100
955 5046
955 5244
955 5253
955 5391
955 7555
956 1792
956 2460
956 2859
956 4166
956 4191
956 4416
956 4770
956 5253
956 5515
956 5564
956 5594
956 5835
956 6372
956 6625
956 6939
956 7034
956 7848
957 1192
957 1196
957 1345
957 1821
957 2000
957 2408
957 2540
957 2551
957 2640
957 3280
957 3309
957 3455
957 3580
957 3818
957 3918
957 3925
957 3937
957 4148
957 4387
957 4445
957 6218
957 6381
957 6567
957 7729
958 6338
958 7609
959 1164
959 5110
960 4291
961 1124
961 1345
961 1641
961 1715
961 2687
961 2890
961 4220
961 4304
961 5171
961 5956
961 6259
961 7034
961 7040
961 7127
961 7430
961 7974
961 8223
964 1467
964 4555
965 1073
965 1086
965 1403
965 1464
965 1524
965 1575
965 1804
965 1826
965 1905
965 1949
965 1959
965 2059
965 2743
965 2830
965 2835
965 2885
965 2957
965 3287
965 3381
965 3407
965 3539
965 3938
965 3995
965 4036
965 4127
965 4177
965 4253
965 4341
965 4451
965 4455
965 4477
965 4762
965 4805
965 4823
965 4858
965 5276
965 5694
965 5762
965 5790
965 5866
965 6077
965 6125
965 6157
965 6259
965 6260
965 6343
965 6347
965 6677
965 6716
965 7153
965 7243
965 7360
965 7473
965 7840
966 1280
966 1534
966 3185
966 3558
966 4678
966 4696
966 4723
966 5187
966 5232
966 5887
966 7164
966 7491
967 1878
967 1905
967 2957
967 3463
967 3530
967 4586
967 4654
967 5397
967 6162
967 6632
967 7360
967 7587
967 7672
970 3634
970 4956
971 1464
972 7346
973 973
973 1212
973 1356
973 3865
973 4581
973 6250
973 6861
973 7340
974 1992
974 3860
974 5383
974 6447
974 7733
976 1398
976 1531
976 2794
976 6052
976 7822
977 1099
977 1427
977 1459
977 1465
977 1900
977 1950
977 2467
977 2739
977 2876
977 3085
977 3507
977 3544
977 3890
977 3897
977 4519
977 4586
977 4773
977 4906
977 5062
977 5108
977 5291
977 5379
977 5431
977 5763
977 5965
977 6479
977 6656
977 6734
977 6841
977 7015
977 7047
977 7140
977 7172
977 7279
977 7473
977 7589
978 5816
979 4313
979 6117
980 1191
980 1464
980 1575
980 2341
980 2586
980 3089
980 3092
980 3740
980 3972
980 4079
980 4108
980 4889
980 4942
980 5647
980 5951
980 6112
980 6625
980 6685
980 6840
980 6917
980 7034
980 7470
980 7564
980 7659
980 7820
980 7833
980 8139
981 1250
981 1536
981 2862
981 4356
981 6141
981 6573
981 6705
981 6938
981 6939
981 7080
981 7276
981 7688
981 7689
981 7927
981 8071
981 8109
981 8162
982 1905
982 3804
982 3944
982 4778
982 5761
982 6779
983 1345
983 1357
983 1641
983 1978
983 2495
983 2723
983 3260
983 3491
983 5171
983 6127
983 6696
983 7041
984 1455
984 5308
985 7276
986 2935
986 7596
986 7597
986 7857
986 7870
986 7897
987 1356
987 1435
987 2073
987 3544
987 3572
987 4399
987 5130
987 5161
987 7281
988 1078
988 2266
988 2645
988 6221
988 6267
988 6334
988 7034
988 7587
988 7775
989 7015
990 1033
991 2110
991 2404
991 2508
991 4187
991 4399
991 5181
991 5802
991 7193
992 992
992 1204
992 1212
992 1356
992 1690
992 1829
992 3309
992 3627
992 5092
992 5154
992 5299
993 7525
994 1816
994 7327
995 1061
995 1346
995 1582
995 1785
995 2408
995 2540
995 2555
995 3284
995 3651
995 3818
995 3933
995 4511
995 4977
995 5121
995 5234
995 5507
995 6111
995 6506
995 6605
995 6840
995 7470
995 7747
995 8062
995 8255
996 1189
996 1228
996 1259
996 1406
996 1599
996 1870
996 1952
996 2314
996 2555
996 3060
996 3272
996 3768
996 3904
996 4028
996 4423
996 4714
996 5026
996 5641
996 5726
996 5740
996 5933
996 5951
996 6111
996 6268
996 6381
996 6496
996 7031
996 7372
996 7860
997 2655
997 4177
997 5728
997 5762
997 7840
998 1990
998 2237
998 2378
998 2598
998 2862
998 2957
998 3530
998 4586
998 5274
998 5291
998 6209
998 6634
999 1024
999 2687
999 3969
1000 1077
1000 1227
1000 1346
1000 1433
1000 1741
1000 2092
1000 2149
1000 2540
1000 2777
1000 3060
1000 3280
1000 4084
1000 4570
1000 4667
1000 4689
1000 4977
1000 5454
1000 5646
1000 5726
1000 5788
1000 7506
1000 7704
1000 7809
1001 1001
1001 2001
1001 2453
1001 2598
1001 3883
1001 5830
1001 7167
1002 1680
1002 1774
1002 1959
1002 1977
1002 2314
1002 2530
1002 2544
1002 2648
1002 2995
1002 3260
1002 3434
1002 4059
1002 4085
1002 4150
1002 4423
1002 5171
1002 5251
1002 5552
1002 5646
1002 5678
1002 5744
1002 6003
1002 6033
1002 6361
1002 6527
1002 6696
1002 6736
1002 6751
1002 7569
1002 8208
1003 5197
1004 1244
1004 1714
1004 1829
1004 1878
1004 1905
1004 2957
1004 3087
1004 3107
1004 3237
1004 3274
1004 3627
1004 3944
1004 4187
1004 4502
1004 4586
1004 4712
1004 4807
1004 5249
1004 5291
1004 5802
1004 5928
1004 6161
1004 6632
1004 6853
1004 7047
1004 7281
1004 7335
1004 8145
1004 8158
1005 7676
1006 1024
1006 1527
1006 4227
1006 4616
1006 6843
1006 7276
1006 7996
1007 3438
1007 4278
1007 5356
1007 5740
1007 6428
1007 7011
1007 7824
1008 5536
1009 1194
1009 1199
1009 1393
1009 1549
1009 1736
1009 1803
1009 1874
1009 1893
1009 1977
1009 2097
1009 2200
1009 2299
1009 2330
1009 2379
1009 2421
1009 2616
1009 2669
1009 2964
1009 3051
1009 3104
1009 3140
1009 3161
1009 3260
1009 3318
1009 3393
1009 3521
1009 3532
1009 3566
1009 3596
1009 3751
1009 4146
1009 4398
1009 4418
1009 4511
1009 4570
1009 4588
1009 4595
1009 4814
1009 4929
1009 4968
1009 4994
1009 5085
1009 5202
1009 5444
1009 5468
1009 5641
1009 5740
1009 5800
1009 5814
1009 5824
1009 5831
1009 5933
1009 6014
1009 6036
1009 6053
1009 6111
1009 6271
1009 6496
1009 6598
1009 6617
1009 6696
1009 6715
1009 6739
1009 6751
1009 6767
1009 6774
1009 6907
1009 7090
1009 7181
1009 7272
1009 7290
1009 7391
1009 7453
1009 7487
1009 7545
1009 7553
1009 7676
1009 7698
1009 7776
1009 7800
1009 7860
1009 8053
1011 2296
1012 1357
1012 1959
1012 5678
1012 6053
1012 6658
1012 7533
1013 1013
1013 1025
1013 1427
1013 1882
1013 2134
1013 2197
1013 2598
1013 3206
1013 3826
1013 4399
1013 4773
1013 4869
1013 5180
1013 5291
1013 5308
1013 5342
1013 5701
1013 5937
1013 7015
1013 7178
1013 7190
1013 8004
1014 5070
1014 5762
1015 1449
1015 6075
1015 6628
1015 8137
1016 6621
1017 3446
1017 3764
1017 4397
1017 4399
1017 5862
1017 6095
1017 7087
1017 7787
1017 7908
1017 8145
1018 1099
1018 1308
1018 1402
1018 1495
1018 1826
1018 1990
1018 2291
1018 2451
1018 3223
1018 4356
1018 4974
1018 6141
1018 6363
1018 6930
1018 6976
1018 7011
1018 7088
1018 7276
1018 7387
1018 7542
1018 7544
1018 7591
1018 7632
1018 7649
1018 7684
1018 7720
1018 7817
1018 7819
1018 7822
1018 7824
1018 7941
1018 8003
1019 1231
1019 4399
1019 5200
1020 2609
1020 3087
1020 3219
1020 3373
1020 4279
1020 4296
1020 4385
1020 4751
1020 5004
1020 5871
1020 6052
1020 6158
1020 7555
1020 7679
1020 8089
1021 1215
1021 1464
1021 1465
1021 1900
1021 2026
1021 2073
1021 2101
1021 2490
1021 2506
1021 2687
1021 2949
1021 2975
1021 3183
1021 3507
1021 3544
1021 4368
1021 4374
1021 4431
1021 4773
1021 4971
1021 5291
1021 5298
1021 5308
1021 5432
1021 5542
1021 6267
1021 6393
1021 7190
1021 7252
1021 7281
1021 7472
1021 7594
1021 7823
1021 8264
1022 1466
1023 1466
1023 2782
1023 4519
1023 4604
1024 1541
1024 4605
1024 5308
1024 5892
1024 6263
1024 6373
1024 6995
1024 7140
1024 7574
1025 1541
1025 1772
1025 2406
1025 7180
1026 1267
1026 6675
1027 1027
1027 3309
1027 4498
1027 7386
1028 1900
1028 1905
1028 2237
1028 6816
1028 7012
1028 7527
1029 1070
1029 1508
1029 1510
1029 2042
1029 2106
1029 2296
1029 2504
1029 2540
1029 3180
1029 3451
1029 3937
1029 4107
1029 4148
1029 4288
1029 4869
1029 5406
1029 5507
1029 5542
1029 6163
1029 7025
1029 7788
1030 5762
1031 3341
1032 1032
1033 5939
1034 1232
1034 2093
1034 5110
1035 1393
1035 1952
1035 2390
1035 2495
1035 2598
1035 2904
1035 3133
1035 3451
1035 3925
1035 4464
1035 4613
1035 4705
1035 5153
1035 5171
1035 5824
1035 6349
1035 6563
1035 7567
1036 1464
1037 3520
1037 4077
1038 4578
1038 4723
1039 7291
1040 3826
1041 2642
1041 4360
1042 2378
1043 1805
1043 6613
1043 6632
1043 6976
1043 7011
1043 7276
1043 7587
1043 7632
1043 7689
1043 7817
1043 7824
1043 8047
1043 8109
1043 8162
1044 4792
1045 6761
1045 7111
1045 7564
1046 1709
1046 1798
1046 1804
1046 4586
1046 5874
1046 7080
1046 7264
1046 7276
1046 7684
1046 7687
1046 7691
1046 7720
1046 7794
1046 7821
1046 8047
1046 8109
1046 8162
1047 6315
1047 6443
1048 5627
1049 2391
1049 6833
1049 6930
1049 7080
1049 7999
1049 8109
1049 8162
1049 8170
1050 1904
1050 4252
1051 1404
1051 3455
1051 3681
1051 4387
1051 5738
1051 6686
1052 1315
1052 1325
1052 1377
1052 1673
1052 2919
1052 2955
1052 3059
1052 3306
1052 3644
1052 4399
1052 4696
1052 5092
1052 5308
1052 5391
1052 5572
1052 5764
1052 5830
1052 6110
1052 6286
1052 6633
1052 7174
1052 7281
1053 5824
1055 2869
1056 1927
1057 1920
1057 2241
1057 2818
1057 3021
1057 4358
1057 4997
1057 5004
1057 6311
1057 6383
1057 6656
1057 8013
1058 1058
1058 1465
1058 1944
1058 1990
1058 2065
1058 2460
1058 2609
1058 2834
1058 3118
1058 3691
1058 4740
1058 5130
1058 5996
1058 7334
1059 6141
1059 6587
1059 7276
1060 2845
1061 1272
1061 1350
1061 1895
1061 2390
1061 3113
1061 3427
1061 3818
1061 3980
1061 4221
1061 6031
1061 6163
1061 6980
1061 7727
1062 1240
1062 1250
1062 1315
1062 1381
1062 1435
1062 1496
1062 1898
1062 1963
1062 2217
1062 2416
1062 2444
1062 2478
1062 2481
1062 2641
1062 2670
1062 2804
1062 2869
1062 3087
1062 3118
1062 3246
1062 3270
1062 3288
1062 3452
1062 3575
1062 3967
1062 4158
1062 4354
1062 4534
1062 4540
1062 4596
1062 4706
1062 4741
1062 4793
1062 4804
1062 4949
1062 5098
1062 5355
1062 5424
1062 5594
1062 5638
1062 5697
1062 5802
1062 5854
1062 5885
1062 5953
1062 6145
1062 6270
1062 6685
1062 6891
1062 6908
1062 6989
1062 6996
1062 7060
1062 7190
1062 7199
1062 7281
1062 7406
1062 7963
1062 8002
1062 8139
1063 1263
1063 5780
1064 1064
1064 1315
1064 1464
1064 1465
1064 1495
1064 1754
1064 2178
1064 2767
1064 2817
1064 2876
1064 3675
1064 3726
1064 3867
1064 4653
1064 4654
1064 4751
1064 4773
1064 5108
1064 5308
1064 5372
1064 5742
1064 6355
1064 6694
1064 6801
1064 6916
1064 7083
1064 7161
1064 7255
1064 7392
1064 7554
1064 8141
1064 8152
1064 8221
1064 8233
1065 1618
1065 1992
1065 2618
1065 3246
1065 3407
1065 4100
1065 4813
1065 5329
1065 6124
1065 6145
1065 6383
1065 6791
1065 7732
1066 1424
1066 1426
1066 1670
1066 1895
1066 2314
1066 2408
1066 2540
1066 3005
1066 3455
1066 4148
1066 4226
1066 4977
1066 5066
1066 5234
1066 5324
1066 6111
1066 6330
1066 7332
1066 7727
1066 7747
1067 1978
1067 2296
1067 5880
1067 6468
1067 7456
1068 3254
1069 2752
1069 7381
1070 2444
1070 4107
1070 6048
1071 1398
1072 1464
1073 4131
1074 1466
1074 1680
1074 1804
1074 2418
1074 2557
1074 2862
1074 2957
1074 4416
1074 4586
1074 4644
1074 4793
1074 5308
1074 5362
1074 5408
1074 6209
1074 6383
1074 6435
1074 6685
1074 7011
1074 7080
1074 7167
1074 7190
1074 7264
1074 7276
1074 7381
1074 7491
1074 7587
1074 7592
1074 7689
1074 7817
1074 7824
1074 8109
1074 8139
1074 8162
1074 8170
1075 1382
1075 1673
1075 2406
1075 2581
1075 3166
1075 3573
1075 3620
1075 4399
1075 6090
1075 6162
1075 7015
1075 8123
1076 2509
1077 1400
1077 2544
1077 2703
1077 3456
1077 3533
1077 3751
1077 4145
1077 4952
1077 5266
1077 5321
1077 5364
1077 5933
1077 6607
1077 6954
1077 7003
1077 7372
1078 1078
1078 1136
1078 1464
1078 2083
1078 2680
1078 2687
1078 3118
1078 3128
1078 3217
1078 4684
1078 5276
1078 5975
1078 6701
1078 7619
1078 7797
1078 8158
1079 1079
1079 1176
1079 1212
1079 1377
1079 3068
1079 3499
1079 3557
1079 3826
1079 3945
1079 4014
1079 4237
1079 5391
1079 7392
1079 7522
1079 8221
1080 1212
1080 1345
1080 8037
1081 7276
1081 7651
1081 8109
1081 8151
1081 8162
1082 7034
1083 2159
1084 1346
1084 1663
1084 2234
1084 2408
1084 3284
1084 3984
1084 4445
1084 5234
1084 5546
1084 7727
1085 4930
1086 1740
1086 2823
1086 2938
1086 3210
1086 3860
1086 3969
1086 3979
1086 4654
1086 4720
1086 4804
1086 5816
1086 5875
1086 6990
1086 8016
1087 3256
1087 3485
1087 3778
1087 3944
1087 7275
1087 7788
1088 1395
1088 1785
1088 3580
1088 3849
1088 4646
1088 5316
1088 5446
1089 1284
1089 1652
1089 1729
1089 2133
1089 2551
1089 2555
1089 2964
1089 3937
1089 4146
1089 4164
1089 5702
1089 5824
1089 6014
1090 4667
1092 3618
1092 4051
1092 4773
1093 2408
1094 4157
1094 5253
1094 6644
1094 7596
1094 7597
1094 7857
1094 7870
1094 7897
1095 2336
1096 1124
1096 1284
1096 1508
1096 1570
1096 1680
1096 3937
1096 4600
1096 4977
1096 5171
1096 6053
1096 6111
1096 6259
1096 6562
1096 7533
1096 7772
1096 8107
1097 1284
1097 1346
1097 1589
1097 2005
1097 2149
1097 2277
1097 2591
1097 3246
1097 3580
1097 3795
1097 3925
1097 3962
1097 4939
1097 5197
1097 5233
1097 5570
1097 5674
1097 5726
1097 6414
1097 6489
1097 7122
1097 7376
1097 7383
1097 7727
1097 7907
1098 1878
1098 2957
1098 4640
1098 6287
1098 7080
1098 7999
1099 1154
1099 1368
1099 1404
1099 1673
1099 1816
1099 1888
1099 2001
1099 2086
1099 2141
1099 2179
1099 2416
1099 2558
1099 2609
1099 2729
1099 2971
1099 3170
1099 3209
1099 3241
1099 3288
1099 3452
1099 3485
1099 3602
1099 3940
1099 4187
1099 4510
1099 4654
1099 4684
1099 4739
1099 4804
1099 4807
1099 4878
1099 4896
1099 5015
1099 5333
1099 5401
1099 5711
1099 5785
1099 5802
1099 5874
1099 5972
1099 6011
1099 6101
1099 6208
1099 6217
1099 6266
1099 6615
1099 6709
1099 6888
1099 6931
1099 7180
1099 7239
1099 7963
1100 2024
1100 5571
1100 6559
1101 2490
1101 2977
1101 3270
1101 4393
1101 5004
1101 6818
1101 7652
1101 7906
1102 1464
1102 5174
1103 1464
1103 3847
1103 4141
1103 5097
1103 6022
1103 6779
1103 6815
1103 7052
1103 7610
1105 1224
1106 1315
1106 1430
1106 1465
1106 1745
1106 1916
1106 2181
1106 3089
1106 3270
1106 3495
1106 4166
1106 4706
1106 5071
1106 5126
1106 5212
1106 5265
1106 5559
1106 6067
1106 6160
1106 6754
1106 6791
1106 7034
1106 7190
1106 7564
1106 8068
1107 1633
1107 1928
1107 3603
1107 5800
1109 3414
1110 3363
1111 3092
1111 3744
1111 4667
1111 4939
1111 5007
1111 6153
1111 6430
1111 6840
1111 7346
1111 7352
1111 7393
1111 7763
1112 1112
1112 1180
1112 1356
1112 1616
1112 1892
1112 2298
1112 2853
1112 3857
1112 4393
1112 4447
1112 5148
1112 5617
1112 6543
1112 6818
1114 7334
1115 3826
1115 3929
1115 4420
1115 4661
1115 5291
1115 7158
1115 7217
1115 7292
1115 7360
1115 8146
1115 8147
1116 1925
1116 3025
1116 3393
1116 3566
1116 5595
1116 8062
1117 4397
1117 5517
1118 3549
1118 4663
1119 5740
1120 1419
1120 3206
1120 4793
1120 5451
1120 5885
1120 7197
1121 1513
1121 1552
1121 2336
1121 3867
1121 4640
1121 4654
1121 4793
1121 5953
1121 6482
1121 6651
1121 7011
1121 7360
1121 8170
1121 8226
1122 1240
1122 1740
1122 2955
1122 4291
1122 4874
1122 5391
1122 5572
1122 5818
1122 5830
1122 5927
1122 6286
1122 6388
1122 6633
1122 7012
1123 1250
1123 5762
1124 1192
1124 1345
1124 1404
1124 1439
1124 1533
1124 2088
1124 2890
1124 3455
1124 3460
1124 3760
1124 3786
1124 3860
1124 3985
1124 4284
1124 4387
1124 4459
1124 4673
1124 4969
1124 5104
1124 5284
1124 5470
1124 5549
1124 5724
1124 6211
1124 6240
1124 6340
1124 6686
1124 8140
1124 8255
1125 1192
1125 1218
1125 1346
1125 2109
1125 2407
1125 2408
1125 2584
1125 2777
1125 2890
1125 2952
1125 3234
1125 3280
1125 3580
1125 3651
1125 3662
1125 3810
1125 3925
1125 3937
1125 3994
1125 4026
1125 4120
1125 4304
1125 4445
1125 4511
1125 4689
1125 4715
1125 4977
1125 5078
1125 5192
1125 5197
1125 5234
1125 5251
1125 5352
1125 5454
1125 5674
1125 5788
1125 5880
1125 5933
1125 6163
1125 6211
1125 6336
1125 6381
1125 6560
1125 6683
1125 6689
1125 6835
1125 7307
1125 7332
1125 7383
1125 7529
1125 7727
1125 7854
1125 8175
1126 1671
1126 5469
1127 1137
1127 1530
1127 1709
1127 1798
1127 2391
1127 3468
1127 4586
1127 4654
1127 6184
1127 7418
1128 1155
1128 1464
1128 2134
1128 2604
1128 2989
1128 3206
1128 3615
1128 3826
1128 3893
1128 4308
1128 4813
1128 4993
1128 5043
1128 5198
1128 5318
1128 5873
1128 5961
1128 5965
1128 6287
1128 6514
1128 6530
1128 7012
1128 7021
1128 7042
1128 7091
1128 7292
1128 7373
1128 7425
1130 1303
1130 5179
1130 5745
1130 5917
1130 6590
1130 7186
1130 7842
1130 7913
1130 8013
1131 5875
1131 6889
1131 7731
1132 3293
1132 6739
1133 1919
1133 2702
1133 3452
1133 5764
1133 6393
1133 6610
1133 8179
1134 1160
1134 7185
1134 7465
1135 3793
1137 1351
1137 1433
1137 1464
1137 1498
1137 2214
1137 2234
1137 2286
1137 2289
1137 2316
1137 2408
1137 2696
1137 2818
1137 3711
1137 3825
1137 3872
1137 3937
1137 4586
1137 4667
1137 4773
1137 4892
1137 4931
1137 4983
1137 4995
1137 5066
1137 5067
1137 5108
1137 5121
1137 5234
1137 5245
1137 5552
1137 5809
1137 6090
1137 6094
1137 6098
1137 6111
1137 6183
1137 6218
1137 6507
1137 6693
1137 6719
1137 6884
1137 6912
1137 7097
1137 7190
1137 7191
1137 7254
1137 7500
1137 7503
1137 7582
1137 7727
1137 7832
1137 7985
1137 8093
1137 8259
1138 1315
1138 1419
1138 1930
1138 1976
1138 2481
1138 2636
1138 2869
1138 3281
1138 4526
1138 4793
1138 5383
1138 6383
1138 7281
1138 7387
1138 7683
1139 1316
1139 2896
1139 3355
1139 3412
1139 4927
1139 7346
1140 1316
1140 3456
1140 5026
1140 6033
1140 7034
1140 7346
1141 3087
1141 3881
1142 6779
1143 1828
1143 7373
1144 7968
1145 1145
1145 4656
1145 5702
1145 7224
1146 1315
1146 1878
1146 2073
1146 2378
1146 2708
1146 3021
1146 3930
1146 4291
1146 4736
1146 4793
1146 5594
1146 7349
1147 4294
1148 6779
1149 7850
1149 8125
1150 2977
1150 4144
1150 4991
1150 6010
1150 6735
1150 6913
1150 7491
1151 1788
1151 1805
1151 2867
1151 3935
1151 4616
1151 5065
1151 5253
1151 5564
1151 5593
1151 6165
1151 7571
1151 7855
1151 7898
1152 1369
1152 1545
1152 2702
1152 2767
1152 3243
1152 3499
1152 3530
1152 3867
1152 4654
1152 5216
1152 7047
1152 7726
1152 8142
1153 1182
1153 1284
1153 1346
1153 1769
1153 2200
1153 2265
1153 2299
1153 2314
1153 2379
1153 2415
1153 2540
1153 2669
1153 2904
1153 2916
1153 3521
1153 3761
1153 3818
1153 4327
1153 4445
1153 4875
1153 5121
1153 5266
1153 5294
1153 5518
1153 5546
1153 5610
1153 5716
1153 5740
1153 6111
1153 6163
1153 6340
1153 6460
1153 6574
1153 6605
1153 6724
1153 6857
1153 6907
1153 7090
1153 7332
1153 7705
1153 7799
1153 7902
1153 7974
1156 1892
1156 7040
1156 7127
1156 8223
1158 1396
1158 1892
1158 3306
1158 3475
1158 5133
1158 5631
1158 6341
1158 7032
1158 8208
1158 8252
1159 5973
1161 1911
1161 3164
1162 2136
1162 6689
1163 1429
1163 3479
1163 3494
1163 4093
1163 4302
1163 4807
1163 4920
1163 5329
1163 5462
1163 5604
1163 5606
1163 5802
1163 5914
1163 5969
1163 6025
1163 6870
1163 7026
1164 1164
1164 1464
1164 1829
1164 2073
1164 2183
1164 3022
1164 3275
1164 4284
1164 5015
1164 5021
1164 6388
1164 6614
1164 6621
1164 7401
1165 4483
1165 5816
1165 7722
1166 2001
1166 4399
1167 2734
1167 2964
1167 3175
1167 5304
1167 6111
1167 6381
1167 7646
1168 1447
1168 2245
1168 2408
1168 2464
1168 2504
1168 3159
1168 3264
1168 3284
1168 3425
1168 3836
1168 3911
1168 4423
1168 4441
1168 4445
1168 5078
1168 5221
1168 5338
1168 5396
1168 5843
1168 5880
1168 6506
1168 7025
1168 7506
1168 7718
1168 7747
1168 7957
1168 7985
1170 1314
1170 1600
1170 2623
1170 3544
1170 3867
1170 5025
1170 5308
1170 6535
1170 6651
1170 6889
1170 7360
1170 7562
1170 7780
1170 7788
1170 7900
1170 8099
1171 2598
1171 5404
1172 1250
1172 1548
1172 2594
1172 3703
1172 3861
1172 4066
1172 4100
1172 4166
1172 4641
1172 5213
1172 5427
1172 5751
1172 6160
1172 6383
1172 6791
1172 6938
1172 6939
1172 6971
1172 7072
1172 7592
1172 7689
1172 7694
1172 7839
1172 7998
1172 8071
1173 1598
1173 6779
1173 6915
1174 4761
1176 1207
1176 1315
1176 1381
1176 1398
1176 1449
1176 1467
1176 2498
1176 2931
1176 2935
1176 3182
1176 3265
1176 3392
1176 3499
1176 3764
1176 3857
1176 3863
1176 4009
1176 4594
1176 4640
1176 4645
1176 4889
1176 5004
1176 5108
1176 5431
1176 5660
1176 5965
1176 6100
1176 6819
1176 6883
1176 6976
1176 6998
1176 7265
1176 7694
1176 7842
1176 7913
1176 7922
1176 7928
1176 8037
1177 5204
1177 6657
1177 6709
1177 7971
1178 4368
1178 5110
1179 5790
1180 7124
1181 3363
1181 7723
1182 1419
1182 2133
1182 2504
1182 2540
1182 2777
1182 2862
1182 3005
1182 3280
1182 3281
1182 3645
1182 3818
1182 3925
1182 4439
1182 4531
1182 4574
1182 4939
1182 4977
1182 4983
1182 5507
1182 5880
1182 6002
1182 6031
1182 6063
1182 6504
1182 6683
1182 6723
1182 7045
1182 7276
1182 7332
1182 7704
1182 7794
1182 7801
1182 7927
1182 8066
1184 2042
1184 3306
1185 2598
1185 4903
1186 4399
1187 4859
1188 1539
1188 4654
1189 1290
1189 1346
1189 1351
1189 1433
1189 2407
1189 2408
1189 2591
1189 3580
1189 3818
1189 3918
1189 3925
1189 3980
1189 3984
1189 4274
1189 4348
1189 4715
1189 4911
1189 4965
1189 5009
1189 5090
1189 5142
1189 5234
1189 5454
1189 5507
1189 5839
1189 5880
1189 5930
1189 6111
1189 6330
1189 6414
1189 6506
1189 6563
1189 6802
1189 6809
1189 7144
1189 7492
1189 7985
1190 4586
1191 1316
1191 3089
1191 7034
1191 7346
1192 1357
1192 1582
1192 1959
1192 2144
1192 2314
1192 2540
1192 2615
1192 2890
1192 2905
1192 3140
1192 3202
1192 3855
1192 3965
1192 4304
1192 4600
1192 5171
1192 5478
1192 5545
1192 5678
1192 5695
1192 6053
1192 6211
1192 6259
1192 6696
1192 6697
1192 7500
1192 7698
1192 7747
1192 7974
1193 1956
1194 1208
1194 1234
1194 1519
1194 1663
1194 1670
1194 1785
1194 2094
1194 2296
1194 2408
1194 2540
1194 2551
1194 2602
1194 2916
1194 3000
1194 3409
1194 3645
1194 3918
1194 4150
1194 4348
1194 4464
1194 4507
1194 4511
1194 5066
1194 5121
1194 5142
1194 5176
1194 5197
1194 5234
1194 5338
1194 5546
1194 5552
1194 6111
1194 6496
1194 6498
1194 6506
1194 6728
1194 6802
1194 6840
1194 7144
1194 7318
1194 7552
1194 7985
1195 1195
1195 1211
1195 1367
1195 1430
1195 1464
1195 1534
1195 1536
1195 1817
1195 1876
1195 1892
1195 1953
1195 2180
1195 2181
1195 2369
1195 2372
1195 2383
1195 2384
1195 2571
1195 2594
1195 2859
1195 3012
1195 3019
1195 3111
1195 3320
1195 3367
1195 3564
1195 3695
1195 3793
1195 3805
1195 3857
1195 3930
1195 4137
1195 4144
1195 4314
1195 4347
1195 4679
1195 4846
1195 5102
1195 5295
1195 5331
1195 5383
1195 5490
1195 5559
1195 5835
1195 5907
1195 6160
1195 6208
1195 6266
1195 6317
1195 6512
1195 6595
1195 6735
1195 6939
1195 6943
1195 6946
1195 7072
1195 7116
1195 7186
1195 7188
1195 7235
1195 7289
1195 7596
1195 7597
1195 7625
1195 7768
1195 7771
1195 7857
1195 7870
1195 7897
1195 7924
1195 7965
1195 7990
1195 7998
1195 8136
1195 8207
1196 2390
1196 2644
1196 4249
1196 6724
1196 7332
1197 1982
1197 2266
1197 2529
1197 2687
1197 2970
1197 5329
1197 6359
1197 6621
1198 6089
1199 1346
1199 1508
1199 1570
1199 2133
1199 2408
1199 2540
1199 3280
1199 3733
1199 3818
1199 3925
1199 4094
1199 4164
1199 4425
1199 4445
1199 4511
1199 4689
1199 4911
1199 4939
1199 4977
1199 5090
1199 5192
1199 5215
1199 6111
1199 7727
1200 3627
1200 6621
1201 4246
1203 1203
1203 1250
1203 1280
1203 1281
1203 1283
1203 1356
1203 1829
1203 2073
1203 2114
1203 2179
1203 2184
1203 2237
1203 2364
1203 2636
1203 2759
1203 2949
1203 3103
1203 3275
1203 3530
1203 3627
1203 3704
1203 4064
1203 4131
1203 4368
1203 4399
1203 4774
1203 4980
1203 5110
1203 5243
1203 5785
1203 6165
1203 6352
1203 6409
1203 7281
1203 7292
1203 7520
1203 7704
1203 8123
1205 3394
1205 3850
1205 7580
1206 1822
1206 3860
1206 5462
1207 1368
1207 1643
1207 2073
1207 2481
1207 2708
1207 3202
1207 3373
1207 3592
1207 3644
1207 3653
1207 4093
1207 4586
1207 4712
1207 4736
1207 5373
1207 5764
1207 5816
1207 6162
1207 6383
1207 6407
1207 6759
1207 7204
1207 7386
1207 7706
1207 7922
1207 8058
1207 8168
1208 1264
1208 1785
1208 2330
1208 3000
1208 3651
1208 3711
1208 4164
1208 5077
1208 6519
1208 6799
1208 7332
1209 1976
1209 2073
1209 2099
1209 3021
1209 3410
1209 4526
1209 4640
1209 5383
1209 5874
1209 6383
1209 6791
1209 7486
1210 2154
1210 2694
1211 3318
1211 4950
1211 5089
1211 5507
1211 6739
1211 7011
1211 7122
1211 7553
1211 7684
1211 7691
1211 7720
1212 1232
1212 1357
1212 1433
1212 1450
1212 1466
1212 1574
1212 1600
1212 1619
1212 1643
1212 1658
1212 1727
1212 1734
1212 1741
1212 1815
1212 1864
1212 1916
1212 2020
1212 2039
1212 2083
1212 2366
1212 2394
1212 2598
1212 2635
1212 2695
1212 2834
1212 2876
1212 2885
1212 2930
1212 3059
1212 3089
1212 3132
1212 3209
1212 3253
1212 3342
1212 3355
1212 3381
1212 3521
1212 3661
1212 3751
1212 3824
1212 3829
1212 3905
1212 3937
1212 3944
1212 3996
1212 4009
1212 4127
1212 4144
1212 4175
1212 4178
1212 4199
1212 4223
1212 4291
1212 4447
1212 4583
1212 4663
1212 4854
1212 4992
1212 5065
1212 5091
1212 5404
1212 5420
1212 5595
1212 5678
1212 5773
1212 5838
1212 5869
1212 5874
1212 5950
1212 5981
1212 6025
1212 6065
1212 6082
1212 6096
1212 6184
1212 6259
1212 6368
1212 6390
1212 6415
1212 6482
1212 6791
1212 6836
1212 6867
1212 6883
1212 6967
1212 6972
1212 7015
1212 7034
1212 7161
1212 7299
1212 7358
1212 7418
1212 7650
1212 7677
1212 7726
1212 7775
1212 7934
1212 7950
1212 8047
1212 8191
1213 2598
1213 6625
1213 7034
1214 2290
1214 3539
1214 5738
1214 5869
1214 6550
1215 2320
1215 6779
1216 4297
1216 7588
1217 2763
1217 4779
1218 2119
1218 2257
1218 6336
1218 7090
1218 7646
1219 1346
1219 2133
1219 2407
1219 2408
1219 2540
1219 2777
1219 3280
1219 3580
1219 3662
1219 3925
1219 3984
1219 4439
1219 4574
1219 4689
1219 4732
1219 4977
1219 5026
1219 5066
1219 5192
1219 5546
1219 6111
1219 6519
1219 7727
1219 7809
1220 3202
1220 7276
1223 1315
1223 1990
1223 2462
1223 2609
1223 3249
1223 6061
1223 6525
1223 6976
1223 7117
1223 7180
1223 7374
1223 7591
1225 1225
1225 3684
1225 7011
1225 7080
1226 7817
1227 1310
1227 1406
1227 1433
1227 1549
1227 1741
1227 2105
1227 2119
1227 2257
1227 2293
1227 2390
1227 2425
1227 2510
1227 3141
1227 3153
1227 3373
1227 3427
1227 4713
1227 4714
1227 5192
1227 5266
1227 5498
1227 5641
1227 5646
1227 6111
1227 6208
1227 6866
1227 7003
1227 7811
1227 7991
1227 8119
1228 1346
1228 1821
1228 1889
1228 2042
1228 2109
1228 2149
1228 2314
1228 2390
1228 2408
1228 2540
1228 2555
1228 3015
1228 3092
1228 3151
1228 3451
1228 3580
1228 3662
1228 3665
1228 3818
1228 3825
1228 3925
1228 4164
1228 4511
1228 4574
1228 4722
1228 4977
1228 5008
1228 5086
1228 5234
1228 5272
1228 5338
1228 5352
1228 5370
1228 5507
1228 5546
1228 5563
1228 5674
1228 5726
1228 5933
1228 5968
1228 6111
1228 6728
1228 6840
1228 7727
1228 7985
1228 8038
1228 8124
1229 4858
1230 7937
1231 1464
1231 1513
1231 2071
1231 2072
1231 2101
1231 2378
1231 2436
1231 2509
1231 2598
1231 2628
1231 2762
1231 2966
1231 3473
1231 3507
1231 4093
1231 4533
1231 5124
1231 5291
1231 5389
1231 5407
1231 5761
1231 5997
1231 6651
1231 6695
1231 7587
1231 8037
1232 1900
1232 3255
1232 4778
1232 6025
1232 7087
1233 4655
1234 1657
1234 1779
1234 1922
1234 1978
1234 2318
1234 2619
1234 3133
1234 3884
1234 4052
1234 4349
1234 4686
1234 4929
1234 5192
1234 5234
1234 6715
1234 6742
1234 7122
1234 7332
1234 7481
1234 7621
1235 4162
1235 5247
1235 6606
1237 2950
1238 1990
1238 6634
1239 1507
1239 5309
1240 1315
1240 1423
1240 1465
1240 1513
1240 1643
1240 1826
1240 2073
1240 2086
1240 2101
1240 2121
1240 2176
1240 2452
1240 2513
1240 2557
1240 2598
1240 2713
1240 2759
1240 2862
1240 2869
1240 2957
1240 3122
1240 3233
1240 3270
1240 3304
1240 3355
1240 3524
1240 3528
1240 3575
1240 3801
1240 3995
1240 4087
1240 4093
1240 4100
1240 4368
1240 4468
1240 4477
1240 4526
1240 4586
1240 4640
1240 4667
1240 4778
1240 5033
1240 5291
1240 5425
1240 5749
1240 5762
1240 5864
1240 5874
1240 6110
1240 6209
1240 6328
1240 6372
1240 6383
1240 6393
1240 6535
1240 6716
1240 6793
1240 6915
1240 6925
1240 7011
1240 7071
1240 7167
1240 7276
1240 7360
1240 7555
1240 7563
1240 7773
1240 7775
1240 8138
1240 8149
1241 6141
1241 7935
1242 1575
1242 2688
1243 3581
1243 4677
1243 6338
1243 7281
1243 7609
1244 2451
1244 2598
1244 2645
1244 3644
1244 4305
1244 5854
1245 2346
1245 2715
1245 3336
1245 3685
1245 3979
1245 3995
1245 5383
1245 5773
1245 6685
1245 7732
1245 7937
1245 8082
1245 8139
1246 3309
1247 1464
1248 1248
1248 4961
1249 3333
1249 8084
1250 1250
1250 1253
1250 1381
1250 1437
1250 1465
1250 1548
1250 1575
1250 1600
1250 2053
1250 2059
1250 2217
1250 2266
1250 2430
1250 2478
1250 2515
1250 2542
1250 2571
1250 2592
1250 2680
1250 2742
1250 2759
1250 2918
1250 2938
1250 2970
1250 3021
1250 3128
1250 3165
1250 3181
1250 3373
1250 3392
1250 3463
1250 3629
1250 3703
1250 4007
1250 4051
1250 4066
1250 4103
1250 4223
1250 4259
1250 4300
1250 4303
1250 4354
1250 4368
1250 4482
1250 4513
1250 4526
1250 4623
1250 4695
1250 4696
1250 4706
1250 4949
1250 4991
1250 5024
1250 5046
1250 5112
1250 5166
1250 5212
1250 5218
1250 5383
1250 5388
1250 5615
1250 5660
1250 5661
1250 5663
1250 5676
1250 5691
1250 5697
1250 5762
1250 5780
1250 5854
1250 5871
1250 5918
1250 5953
1250 5997
1250 6145
1250 6328
1250 6337
1250 6375
1250 6477
1250 6587
1250 6621
1250 6791
1250 6800
1250 6896
1250 6915
1250 6929
1250 6938
1250 6946
1250 6952
1250 7069
1250 7096
1250 7117
1250 7264
1250 7281
1250 7292
1250 7390
1250 7555
1250 7562
1250 7592
1250 7610
1250 7631
1250 7694
1251 1284
1251 2421
1251 2441
1251 2681
1251 3015
1251 3104
1251 4150
1251 4349
1251 5171
1251 5204
1251 5489
1251 5957
1251 6496
1251 7890
1251 8124
1252 1433
1252 1598
1252 1991
1252 2071
1252 2263
1252 2660
1252 3107
1252 3125
1252 3141
1252 3373
1252 3502
1252 4303
1252 4312
1252 4956
1252 5671
1252 5834
1252 6575
1252 7616
1252 7627
1252 7636
1252 7694
1253 1878
1253 5291
1253 5342
1253 7167
1254 2378
1255 1328
1255 1459
1255 1876
1255 2195
1255 2337
1255 2348
1255 2406
1255 2416
1255 2456
1255 2869
1255 3793
1255 3979
1255 4736
1255 4833
1255 5216
1255 5373
1255 5383
1255 5830
1255 5874
1255 6208
1255 6468
1255 6590
1255 7281
1255 7576
1255 7596
1255 7597
1255 7857
1255 7870
1255 7897
1256 1256
1257 2580
1258 6414
1259 1978
1259 2296
1259 2314
1259 3058
1259 3396
1259 3597
1259 4419
1259 4705
1259 4977
1259 5297
1259 6036
1259 6414
1259 6728
1259 6739
1259 7621
1260 5073
1260 7372
1260 7704
1261 1284
1261 1464
1261 1641
1261 2390
1261 2551
1261 3058
1261 3747
1261 5053
1261 6014
1261 6486
1261 7090
1261 7929
1262 1803
1262 5601
1262 7181
1263 1383
1263 1506
1263 2221
1263 4149
1263 4907
1263 5959
1264 3280
1264 4085
1264 4969
1264 6949
1264 7122
1264 7324
1264 7553
1265 2101
1265 3358
1265 3579
1265 3769
1265 3866
1265 4243
1265 4767
1265 5091
1265 5291
1265 6121
1265 6420
1265 6632
1265 7324
1265 7611
1266 1539
1266 2053
1266 4645
1266 5150
1266 6412
1266 7491
1267 2230
1267 2827
1267 5239
1267 6073
1268 1317
1268 2460
1268 2768
1268 4770
1268 5253
1268 6625
1268 6946
1268 7235
1268 7596
1268 7597
1268 7857
1268 7870
1268 7897
1269 1419
1269 1981
1270 2071
1270 2720
1270 4945
1270 6158
1270 7918
1271 2237
1271 4399
1271 5802
1271 6621
1271 6971
1271 7562
1273 3986
1273 6226
1274 1321
1274 1721
1274 2028
1274 2029
1274 2354
1274 2644
1274 2650
1274 2983
1274 3847
1274 3952
1274 4349
1274 4500
1274 5168
1274 5370
1274 6240
1274 6970
1274 7113
1274 7124
1274 7630
1274 7997
1274 8153
1275 1464
1275 2687
1275 2805
1275 5186
1275 5372
1275 5433
1275 6246
1276 1276
1277 3309
1277 3974
1277 4397
1277 4399
1278 1927
1278 6424
1279 3280
1279 4445
1279 5454
1280 1464
1280 1600
1280 1905
1280 2266
1280 2767
1280 2957
1280 3107
1280 3199
1280 3298
1280 3463
1280 3524
1280 3593
1280 3915
1280 3944
1280 3951
1280 4294
1280 4477
1280 4586
1280 4869
1280 5291
1280 5408
1280 5709
1280 5856
1280 6074
1280 6209
1280 6270
1280 6347
1280 6352
1280 6427
1280 6535
1280 6716
1280 6874
1280 6915
1280 7047
1280 7160
1280 7167
1280 7191
1280 7275
1280 7292
1280 7360
1280 7422
1280 7592
1280 7731
1281 1464
1281 7292
1282 1513
1283 2394
1283 3352
1283 3449
1283 4087
1283 5762
1283 7190
1283 7292
1283 7445
1283 8151
1284 1284
1284 1346
1284 1418
1284 1471
1284 1514
1284 1892
1284 1959
1284 2119
1284 2133
1284 2296
1284 2299
1284 2390
1284 2551
1284 2555
1284 2795
1284 3025
1284 3058
1284 3280
1284 3309
1284 3426
1284 3438
1284 3451
1284 3600
1284 3747
1284 3751
1284 3825
1284 3918
1284 3980
1284 4026
1284 4348
1284 4439
1284 4445
1284 4507
1284 4511
1284 4715
1284 4816
1284 4968
1284 4977
1284 5066
1284 5164
1284 5197
1284 5242
1284 5377
1284 5454
1284 5546
1284 5610
1284 5707
1284 5716
1284 5771
1284 5831
1284 6111
1284 6299
1284 6506
1284 6659
1284 6723
1284 6867
1284 7408
1284 7529
1284 7727
1284 8113
1285 1464
1285 1942
1285 2296
1285 3280
1285 4939
1285 5674
1286 4020
1287 8234
1288 6634
1289 1289
1289 1356
1289 1419
1289 1455
1289 1464
1289 1527
1289 1709
1289 2001
1289 2053
1289 2101
1289 2176
1289 2369
1289 2378
1289 2383
1289 2436
1289 2576
1289 2687
1289 2805
1289 2862
1289 3028
1289 3309
1289 3467
1289 3575
1289 3668
1289 3684
1289 3826
1289 4259
1289 4291
1289 4356
1289 4399
1289 4533
1289 4623
1289 4706
1289 4723
1289 4787
1289 4833
1289 5046
1289 5050
1289 5084
1289 5212
1289 5308
1289 5326
1289 5709
1289 5835
1289 5854
1289 5874
1289 6082
1289 6267
1289 6315
1289 6393
1289 6587
1289 6754
1289 7072
1289 7178
1289 7190
1289 7235
1289 7264
1289 7360
1289 7555
1289 7587
1289 7638
1289 7935
1289 8014
1290 3311
1290 3414
1290 3751
1290 5164
1290 5843
1290 6163
1290 6299
1290 7090
1291 1601
1291 3725
1291 4464
1291 6111
1292 1315
1292 1352
1292 1380
1292 1556
1292 2266
1292 2542
1292 2632
1292 3022
1292 3068
1292 3239
1292 3507
1292 3883
1292 4656
1292 4756
1292 4890
1292 4907
1292 4966
1292 5108
1292 5637
1292 5946
1292 6246
1292 6267
1292 6339
1292 6477
1292 6656
1292 6898
1292 7190
1292 7191
1292 7467
1292 8035
1293 6743
1294 6578
1294 6634
1294 7346
1295 4812
1296 4399
1297 3468
1297 5866
1297 6184
1298 6184
1298 6379
1299 1411
1299 1586
1299 2406
1299 3915
1299 4081
1299 4399
1299 4670
1299 5804
1299 6208
1299 7367
1300 4199
1300 4641
1300 5108
1300 5253
1300 5593
1300 5606
1300 7691
1300 7855
1300 8211
1301 1601
1301 1674
1301 4929
1301 5800
1301 7246
1302 1829
1302 2114
1302 2329
1302 2864
1302 3485
1302 3778
1302 4213
1302 4804
1302 5012
1302 5046
1302 5802
1302 6415
1302 6856
1302 6990
1303 7842
1303 7913
1304 2540
1304 3280
1304 4439
1304 6414
1305 4100
1305 4399
1305 6222
1305 7248
1305 7390
1306 2072
1306 2759
1306 2922
1306 4701
1306 4724
1306 5265
1306 5562
1306 6477
1307 3058
1307 3651
1307 5563
1307 6398
1307 7332
1308 1916
1308 2502
1308 3087
1308 3209
1308 4294
1308 6137
1308 6236
1308 6270
1308 7149
1308 7394
1309 6779
1310 1433
1310 4792
1310 7503
1311 5627
1312 1598
1312 7646
1313 1988
1313 3644
1314 2623
1314 4586
1314 4736
1314 5230
1314 5612
1314 5862
1314 5869
1314 6448
1314 6456
1314 6507
1314 6887
1314 7029
1314 7164
1314 7165
1314 7191
1314 7286
1315 1315
1315 1317
1315 1339
1315 1352
1315 1358
1315 1359
1315 1368
1315 1380
1315 1382
1315 1399
1315 1419
1315 1466
1315 1495
1315 1513
1315 1518
1315 1574
1315 1602
1315 1618
1315 1643
1315 1673
1315 1706
1315 1714
1315 1816
1315 1822
1315 1826
1315 1829
1315 1939
1315 1958
1315 1963
1315 2001
1315 2053
1315 2073
1315 2139
1315 2173
1315 2179
1315 2181
1315 2217
1315 2219
1315 2320
1315 2378
1315 2404
1315 2444
1315 2494
1315 2505
1315 2571
1315 2580
1315 2623
1315 2658
1315 2742
1315 2743
1315 2747
1315 2768
1315 2804
1315 2862
1315 2869
1315 2957
1315 2977
1315 3019
1315 3059
1315 3118
1315 3141
1315 3209
1315 3239
1315 3265
1315 3281
1315 3298
1315 3317
1315 3373
1315 3410
1315 3465
1315 3485
1315 3494
1315 3528
1315 3530
1315 3537
1315 3574
1315 3578
1315 3592
1315 3629
1315 3643
1315 3644
1315 3678
1315 3801
1315 3829
1315 3867
1315 3895
1315 3902
1315 3924
1315 3930
1315 3957
1315 4018
1315 4051
1315 4057
1315 4062
1315 4066
1315 4069
1315 4073
1315 4166
1315 4208
1315 4216
1315 4223
1315 4347
1315 4397
1315 4399
1315 4416
1315 4468
1315 4475
1315 4482
1315 4539
1315 4540
1315 4623
1315 4644
1315 4654
1315 4661
1315 4696
1315 4718
1315 4723
1315 4770
1315 4804
1315 4949
1315 5024
1315 5046
1315 5065
1315 5112
1315 5114
1315 5126
1315 5211
1315 5212
1315 5262
1315 5291
1315 5329
1315 5336
1315 5346
1315 5373
1315 5391
1315 5462
1315 5562
1315 5564
1315 5566
1315 5567
1315 5594
1315 5681
1315 5682
1315 5696
1315 5760
1315 5764
1315 5802
1315 5835
1315 5885
1315 5934
1315 5953
1315 5981
1315 6067
1315 6082
1315 6096
1315 6101
1315 6110
1315 6208
1315 6243
1315 6257
1315 6383
1315 6388
1315 6407
1315 6412
1315 6449
1315 6454
1315 6479
1315 6535
1315 6573
1315 6587
1315 6625
1315 6654
1315 6711
1315 6716
1315 6770
1315 6791
1315 6793
1315 6833
1315 6911
1315 6915
1315 6930
1315 6939
1315 6946
1315 7011
1315 7012
1315 7018
1315 7052
1315 7072
1315 7079
1315 7096
1315 7172
1315 7188
1315 7264
1315 7268
1315 7276
1315 7281
1315 7349
1315 7360
1315 7381
1315 7386
1315 7451
1315 7463
1315 7485
1315 7555
1315 7571
1315 7592
1315 7661
1315 7691
1315 7788
1315 7822
1315 7839
1315 7871
1315 7896
1315 7935
1315 7981
1315 7998
1315 8109
1315 8162
1315 8170
1315 8197
1315 8200
1316 1316
1316 1373
1316 1414
1316 1452
1316 1466
1316 1578
1316 1725
1316 1910
1316 1925
1316 1975
1316 2028
1316 2269
1316 2354
1316 2410
1316 2412
1316 2426
1316 2516
1316 2564
1316 2579
1316 2622
1316 2637
1316 2731
1316 2821
1316 2824
1316 2847
1316 2891
1316 2941
1316 2951
1316 2986
1316 3047
1316 3114
1316 3167
1316 3290
1316 3292
1316 3319
1316 3378
1316 3412
1316 3422
1316 3452
1316 3477
1316 3628
1316 3650
1316 3869
1316 3892
1316 3995
1316 4056
1316 4147
1316 4260
1316 4328
1316 4349
1316 4501
1316 4528
1316 4536
1316 4648
1316 4658
1316 4667
1316 4702
1316 4816
1316 4837
1316 4879
1316 4912
1316 4942
1316 4983
1316 5019
1316 5144
1316 5250
1316 5347
1316 5370
1316 5471
1316 5474
1316 5479
1316 5504
1316 5614
1316 5632
1316 5885
1316 5951
1316 5957
1316 6051
1316 6065
1316 6072
1316 6153
1316 6326
1316 6381
1316 6389
1316 6468
1316 6564
1316 6685
1316 6708
1316 6828
1316 6872
1316 6935
1316 7034
1316 7233
1316 7284
1316 7307
1316 7310
1316 7346
1316 7468
1316 7470
1316 7526
1316 7533
1316 7558
1316 7563
1316 7564
1316 7595
1316 7733
1316 7754
1316 7827
1316 7846
1316 7877
1316 7923
1316 7936
1316 7975
1316 8101
1316 8139
1316 8174
1317 1610
1317 1916
1317 2000
1317 2083
1317 4166
1317 4623
1317 4734
1317 4770
1317 5212
1317 5336
1317 5977
1317 6735
1317 6791
1317 6874
1317 7276
1317 7396
1317 7485
1317 7691
1317 7734
1318 4578
1318 6162
1318 7698
1319 2841
1319 3175
1319 5087
1319 6496
1319 6563
1319 6580
1319 7567
1320 2023
1320 2127
1320 2509
1320 2660
1320 2782
1320 4519
1320 5762
1320 6694
1320 7881
1321 1998
1321 2957
1321 3107
1321 5291
1321 5762
1321 5997
1321 6162
1322 7824
1322 8109
1322 8162
1323 1323
1323 1557
1323 1600
1323 1900
1323 2660
1323 2867
1323 2957
1323 2961
1323 3700
1323 4093
1323 4189
1323 4303
1323 4399
1323 4723
1323 5065
1323 5762
1323 6613
1324 7276
1325 4869
1325 5106
1326 7647
1327 3744
1329 1419
1329 1981
1329 3437
1329 3891
1329 4143
1330 6454
1331 3128
1332 1332
1333 1464
1333 2266
1333 4294
1333 4773
1334 1785
1334 3725
1334 5164
1335 1815
1335 5838
1335 6225
1336 4698
1337 1464
1337 1905
1337 2885
1337 3130
1337 3544
1337 4533
1337 4773
1337 5193
1337 5225
1337 5291
1337 5348
1337 5874
1337 5914
1337 6162
1337 6841
1337 7575
1339 5291
1339 5966
1340 2390
1340 2644
1340 6739
1341 6184
1342 2768
1342 7396
1342 7476
1343 1804
1343 4279
1343 5674
1343 6165
1343 6651
1343 6791
1343 7184
1344 1419
1344 1649
1344 2767
1344 3684
1344 4143
1344 4543
1344 4811
1344 5838
1344 6090
1344 6815
1344 6852
1344 6928
1344 6967
1344 6972
1344 7011
1344 7080
1344 7265
1344 7276
1344 7683
1344 7824
1345 1488
1345 1769
1345 1806
1345 2615
1345 2868
1345 3232
1345 3455
1345 3681
1345 3760
1345 5171
1345 5284
1345 5549
1345 5674
1345 6336
1345 7622
1345 7698
1346 1350
1346 1371
1346 1393
1346 1396
1346 1406
1346 1448
1346 1454
1346 1620
1346 1652
1346 1713
1346 1736
1346 1803
1346 1918
1346 1959
1346 2119
1346 2200
1346 2257
1346 2271
1346 2277
1346 2330
1346 2379
1346 2415
1346 2441
1346 2495
1346 2551
1346 2616
1346 2619
1346 2681
1346 2715
1346 2841
1346 2904
1346 2964
1346 2995
1346 3025
1346 3058
1346 3102
1346 3175
1346 3201
1346 3280
1346 3290
1346 3418
1346 3438
1346 3450
1346 3451
1346 3456
1346 3563
1346 3603
1346 3725
1346 3747
1346 3751
1346 3810
1346 3904
1346 3937
1346 4028
1346 4085
1346 4115
1346 4146
1346 4214
1346 4249
1346 4464
1346 4652
1346 4705
1346 4827
1346 4915
1346 4950
1346 5020
1346 5078
1346 5133
1346 5136
1346 5164
1346 5171
1346 5266
1346 5456
1346 5507
1346 5563
1346 5601
1346 5602
1346 5610
1346 5641
1346 5646
1346 5716
1346 5726
1346 5740
1346 5771
1346 5800
1346 5858
1346 5957
1346 6014
1346 6033
1346 6053
1346 6089
1346 6113
1346 6224
1346 6259
1346 6268
1346 6299
1346 6321
1346 6349
1346 6399
1346 6414
1346 6468
1346 6486
1346 6496
1346 6563
1346 6580
1346 6607
1346 6724
1346 6739
1346 6767
1346 6843
1346 6845
1346 6849
1346 6907
1346 6949
1346 6954
1346 7041
1346 7045
1346 7107
1346 7122
1346 7332
1346 7376
1346 7391
1346 7408
1346 7456
1346 7481
1346 7545
1346 7605
1346 7608
1346 7621
1346 7646
1346 7676
1346 7705
1346 7712
1346 7722
1346 7764
1346 7929
1346 7937
1346 7974
1346 8062
1346 8119
1346 8175
1347 2862
1347 2957
1347 7276
1347 8109
1347 8162
1349 1905
1349 2660
1349 6694
1350 1433
1350 1570
1350 2407
1350 2540
1350 2555
1350 2821
1350 2897
1350 3039
1350 3060
1350 3425
1350 3651
1350 3662
1350 3925
1350 3984
1350 4056
1350 4146
1350 4164
1350 4977
1350 5026
1350 5113
1350 5221
1350 5229
1350 5297
1350 5381
1350 5546
1350 5880
1350 6218
1350 6259
1350 6330
1350 6498
1350 6506
1350 6540
1350 6802
1350 7332
1350 8113
1351 1925
1351 2271
1351 3102
1351 3161
1351 3393
1351 4814
1351 5204
1351 6248
1351 7181
1351 7264
1352 1518
1352 1709
1352 1811
1352 1916
1352 2184
1352 2360
1352 2460
1352 2462
1352 2528
1352 2571
1352 2687
1352 2859
1352 2869
1352 2879
1352 2987
1352 3059
1352 3064
1352 3087
1352 3132
1352 3309
1352 3452
1352 3604
1352 3691
1352 3692
1352 3959
1352 4018
1352 4048
1352 4073
1352 4223
1352 4290
1352 4291
1352 4538
1352 4540
1352 4641
1352 4696
1352 4741
1352 4833
1352 4924
1352 4930
1352 4991
1352 5391
1352 5492
1352 5517
1352 5874
1352 5935
1352 6245
1352 6266
1352 6621
1352 6782
1352 6791
1352 7281
1352 7385
1352 7706
1352 7812
1352 7853
1352 7861
1352 7906
1352 8067
1352 8070
1352 8123
1352 8168
1352 8207
1353 7587
1354 1805
1354 2867
1354 3391
1354 3700
1354 5065
1354 6634
1354 7276
1354 7360
1354 7691
1355 5967
1355 7178
1356 1433
1356 1465
1356 1597
1356 1619
1356 1826
1356 1900
1356 1905
1356 1959
1356 2075
1356 2101
1356 2208
1356 2363
1356 2364
1356 2562
1356 2598
1356 2635
1356 2759
1356 2823
1356 2834
1356 2876
1356 2930
1356 3022
1356 3122
1356 3355
1356 3364
1356 3441
1356 3468
1356 3530
1356 3544
1356 3690
1356 3849
1356 3937
1356 4009
1356 4127
1356 4199
1356 4303
1356 4330
1356 4505
1356 4572
1356 4580
1356 4586
1356 4646
1356 4661
1356 4680
1356 4778
1356 4788
1356 4823
1356 5108
1356 5119
1356 5291
1356 5540
1356 5661
1356 5763
1356 5997
1356 6062
1356 6100
1356 6157
1356 6194
1356 6226
1356 6244
1356 6682
1356 6685
1356 6711
1356 6763
1356 7015
1356 7047
1356 7217
1356 7292
1356 7360
1356 7464
1356 7473
1356 7562
1356 7596
1356 7597
1356 7775
1356 7857
1356 7870
1356 7897
1356 7900
1356 7939
1356 8139
1356 8141
1357 1442
1357 1731
1357 1938
1357 1957
1357 2176
1357 2544
1357 2777
1357 2921
1357 3058
1357 3280
1357 3475
1357 3516
1357 3580
1357 4059
1357 4399
1357 4459
1357 4501
1357 4763
1357 4792
1357 5081
1357 5284
1357 5311
1357 5610
1357 5674
1357 6001
1357 6111
1357 6240
1357 7529
1357 7556
1357 7727
1358 1381
1358 1382
1358 2406
1358 2529
1358 3209
1358 3452
1358 4041
1358 4105
1358 4368
1358 4653
1358 5523
1358 5802
1358 5953
1358 6110
1358 6791
1358 7563
1358 7709
1358 7848
1359 1419
1359 2217
1359 2405
1359 2977
1359 3891
1359 3924
1359 4018
1359 5451
1359 5757
1359 5918
1359 6010
1359 6187
1359 7491
1359 7670
1360 1674
1360 3113
1360 6337
1361 2862
1361 4094
1362 3624
1362 3924
1363 7034
1364 3627
1364 6791
1365 3751
1365 7292
1367 2510
1368 1449
1368 1513
1368 2189
1368 2623
1368 2687
1368 3309
1368 3826
1368 4519
1368 4661
1368 4721
1368 4869
1368 4966
1368 4997
1368 5560
1368 5562
1368 6130
1368 6267
1368 6303
1368 6369
1368 6393
1368 6995
1368 7054
1368 7057
1368 7190
1368 7254
1368 7840
1368 7841
1368 8151
1368 8248
1369 2604
1369 3010
1369 6616
1370 1549
1370 2105
1370 3153
1370 3904
1370 5646
1370 5680
1370 5706
1370 6163
1370 6271
1370 6299
1370 7412
1370 7736
1370 8053
1371 1511
1371 2119
1371 3160
1371 3230
1371 3825
1371 4348
1371 4445
1371 4561
1371 5066
1371 5197
1371 5251
1371 5546
1371 5680
1371 6489
1371 6689
1371 6742
1371 7456
1371 7985
1371 8038
1372 6634
1373 7346
1374 5854
1374 7012
1375 1375
1375 2083
1375 8151
1376 1834
1376 2002
1376 2174
1376 4229
1376 4254
1376 4391
1376 4533
1376 5853
1376 7231
1377 1465
1377 1560
1377 1716
1377 2189
1377 2276
1377 2878
1377 2898
1377 3523
1377 3864
1377 4009
1377 4341
1377 4797
1377 4889
1377 5106
1377 5108
1377 5151
1377 5336
1377 5406
1377 5661
1377 5735
1377 6050
1377 6417
1377 6604
1377 6654
1377 6685
1377 7244
1377 8035
1377 8139
1378 7426
1379 2136
1380 1559
1380 2444
1380 4157
1380 4654
1380 5065
1380 5253
1380 5391
1380 5564
1380 5594
1380 5885
1380 5989
1380 6162
1380 6383
1380 6591
1380 7571
1381 1600
1381 1634
1381 1878
1381 1905
1381 2598
1381 2660
1381 2823
1381 2957
1381 3122
1381 3355
1381 3373
1381 3524
1381 3530
1381 3599
1381 3826
1381 4103
1381 4127
1381 4399
1381 4468
1381 4486
1381 4661
1381 4773
1381 4778
1381 5126
1381 5262
1381 5291
1381 5308
1381 5748
1381 5929
1381 6069
1381 6162
1381 6407
1381 6535
1381 6613
1381 6915
1381 7011
1381 7015
1381 7047
1381 7264
1381 7281
1381 7360
1381 7386
1381 7466
1381 7562
1381 7592
1381 7788
1381 8099
1382 1382
1382 1481
1382 1539
1382 1600
1382 1788
1382 1878
1382 1905
1382 1919
1382 2371
1382 2660
1382 2862
1382 2957
1382 3360
1382 3467
1382 3497
1382 3507
1382 3530
1382 3569
1382 3700
1382 3890
1382 3900
1382 3935
1382 3957
1382 4199
1382 4346
1382 4468
1382 4586
1382 4640
1382 4654
1382 4751
1382 4773
1382 5065
1382 5273
1382 5291
1382 5319
1382 5433
1382 5593
1382 5749
1382 5885
1382 5965
1382 5980
1382 5991
1382 6162
1382 6209
1382 6358
1382 6383
1382 6412
1382 6454
1382 6517
1382 6535
1382 6550
1382 6672
1382 6853
1382 6915
1382 6946
1382 7011
1382 7017
1382 7080
1382 7088
1382 7167
1382 7191
1382 7264
1382 7276
1382 7281
1382 7352
1382 7360
1382 7473
1382 7683
1382 7691
1382 7734
1382 7824
1382 7855
1382 7898
1382 8069
1383 2184
1383 2609
1383 3703
1383 6162
1383 7407
1384 7276
1384 8109
1384 8162
1385 3739
1385 4566
1385 7429
1387 2604
1387 3010
1387 5393
1387 6616
1387 7011
1388 1464
1388 3537
1388 3826
1388 5560
1388 7745
1389 2130
1390 1464
1390 1537
1390 1981
1390 6250
1390 7276
1390 7346
1390 7937
1391 4809
1391 6656
1392 1433
1393 1424
1393 1471
1393 1874
1393 1971
1393 2296
1393 2314
1393 2551
1393 2555
1393 3092
1393 3280
1393 3331
1393 3408
1393 3836
1393 3925
1393 3933
1393 4248
1393 4348
1393 4370
1393 4423
1393 4445
1393 4501
1393 4667
1393 4875
1393 5020
1393 5086
1393 5121
1393 5352
1393 5610
1393 5622
1393 6300
1393 6356
1393 6452
1393 6499
1393 6506
1393 6785
1393 6802
1393 7318
1393 7506
1393 7553
1393 7747
1393 7860
1393 7977
1394 5130
1395 1944
1395 3414
1395 3502
1395 3703
1395 5445
1395 5785
1395 5929
1395 5953
1395 5996
1395 6558
1395 7012
1395 7212
1395 7616
1396 1570
1396 2133
1396 2277
1396 2540
1396 2995
1396 3202
1396 3280
1396 3374
1396 3472
1396 3580
1396 3818
1396 3925
1396 3980
1396 4148
1396 4714
1396 5197
1396 5546
1396 5702
1396 5726
1396 6002
1396 6218
1396 6381
1396 6452
1396 7412
1397 1674
1397 5456
1397 6163
1398 1437
1398 1441
1398 1598
1398 1618
1398 1714
1398 1898
1398 1982
1398 2071
1398 2073
1398 2096
1398 2099
1398 2159
1398 2179
1398 2217
1398 2360
1398 2759
1398 3021
1398 3087
1398 3118
1398 3246
1398 3867
1398 3930
1398 3954
1398 4100
1398 4127
1398 4582
1398 4736
1398 4804
1398 4921
1398 5046
1398 5098
1398 5629
1398 5697
1398 5896
1398 5990
1398 6101
1398 6103
1398 6145
1398 6325
1398 6375
1398 6407
1398 6874
1398 6908
1398 7141
1398 7252
1398 7463
1398 7498
1398 7555
1398 7854
1398 8049
1398 8142
1399 1464
1399 7012
1400 1592
1400 1821
1400 2133
1400 2408
1400 2551
1400 2555
1400 3280
1400 3456
1400 3645
1400 3818
1400 3925
1400 3980
1400 4164
1400 4348
1400 4464
1400 4574
1400 5026
1400 5197
1400 6014
1400 6452
1400 7809
1401 1464
1401 1465
1401 1495
1401 1905
1401 2598
1401 7360
1401 7508
1401 7838
1402 1990
1402 2173
1402 5953
1403 1403
1403 2001
1403 6941
1403 7478
1404 1730
1404 1822
1404 1878
1404 2378
1404 2598
1404 2862
1404 2890
1404 2957
1404 4586
1404 4773
1404 5124
1404 5126
1404 5291
1404 5342
1404 5535
1404 6162
1404 6259
1404 6658
1404 6672
1404 6685
1404 6696
1404 7011
1404 7047
1404 7158
1404 7167
1404 7190
1404 7217
1404 7292
1404 7587
1404 8074
1404 8139
1405 1756
1405 1828
1405 2157
1405 2360
1405 2708
1405 3054
1405 3974
1405 5772
1405 7575
1406 1433
1406 1549
1406 1741
1406 2133
1406 2407
1406 2408
1406 2510
1406 2540
1406 2591
1406 2640
1406 2777
1406 2916
1406 3580
1406 3662
1406 3825
1406 3994
1406 4293
1406 4348
1406 4439
1406 4445
1406 4561
1406 4667
1406 4689
1406 4977
1406 5066
1406 5067
1406 5121
1406 5169
1406 5454
1406 5507
1406 5726
1406 6002
1406 6111
1406 6218
1406 6336
1406 6506
1406 7727
1406 7851
1407 5013
1408 1408
1408 1459
1408 1712
1408 3209
1408 3474
1408 3488
1408 3592
1408 3661
1408 3691
1408 5092
1408 7012
1408 7141
1408 7596
1408 7597
1408 7857
1408 7870
1408 7897
1408 8142
1409 3456
1410 7394
1411 1707
1411 4025
1412 3827
1413 1826
1413 7042
1414 7034
1415 6141
1416 5164
1416 5771
1417 3309
1419 1419
1419 1438
1419 1548
1419 1602
1419 1612
1419 1643
1419 1678
1419 1709
1419 1772
1419 1804
1419 1823
1419 1826
1419 1930
1419 1963
1419 1975
1419 2017
1419 2080
1419 2091
1419 2101
1419 2179
1419 2369
1419 2406
1419 2410
1419 2444
1419 2446
1419 2462
1419 2467
1419 2481
1419 2515
1419 2543
1419 2576
1419 2598
1419 2609
1419 2751
1419 2770
1419 2862
1419 2863
1419 2911
1419 2918
1419 3048
1419 3057
1419 3136
1419 3138
1419 3141
1419 3185
1419 3258
1419 3262
1419 3279
1419 3281
1419 3288
1419 3309
1419 3317
1419 3325
1419 3367
1419 3407
1419 3479
1419 3494
1419 3544
1419 3628
1419 3684
1419 3699
1419 3793
1419 3871
1419 3891
1419 3895
1419 3924
1419 3963
1419 4022
1419 4199
1419 4230
1419 4291
1419 4320
1419 4356
1419 4397
1419 4540
1419 4543
1419 4545
1419 4565
1419 4592
1419 4629
1419 4641
1419 4679
1419 4686
1419 4706
1419 4712
1419 4793
1419 4795
1419 4822
1419 4833
1419 4888
1419 4943
1419 4949
1419 4974
1419 5218
1419 5240
1419 5265
1419 5294
1419 5342
1419 5383
1419 5396
1419 5405
1419 5416
1419 5451
1419 5462
1419 5484
1419 5505
1419 5668
1419 5676
1419 5691
1419 5735
1419 5751
1419 5753
1419 5779
1419 5784
1419 5789
1419 5830
1419 5838
1419 5871
1419 5905
1419 5953
1419 6024
1419 6041
1419 6090
1419 6096
1419 6107
1419 6149
1419 6165
1419 6202
1419 6324
1419 6383
1419 6495
1419 6573
1419 6587
1419 6634
1419 6711
1419 6725
1419 6735
1419 6753
1419 6803
1419 6874
1419 6883
1419 6897
1419 6928
1419 6938
1419 6939
1419 6943
1419 6944
1419 6947
1419 6959
1419 6964
1419 6965
1419 6966
1419 6967
1419 6970
1419 6976
1419 6990
1419 6998
1419 7011
1419 7021
1419 7026
1419 7053
1419 7080
1419 7088
1419 7089
1419 7171
1419 7190
1419 7191
1419 7226
1419 7235
1419 7264
1419 7265
1419 7276
1419 7321
1419 7386
1419 7387
1419 7390
1419 7403
1419 7406
1419 7473
1419 7491
1419 7518
1419 7570
1419 7591
1419 7631
1419 7632
1419 7638
1419 7649
1419 7650
1419 7683
1419 7684
1419 7686
1419 7687
1419 7690
1419 7691
1419 7719
1419 7720
1419 7759
1419 7793
1419 7794
1419 7817
1419 7819
1419 7821
1419 7824
1419 7871
1419 7884
1419 7927
1419 7934
1419 7935
1419 7941
1419 7950
1419 7981
1419 7992
1419 7998
1419 8003
1419 8047
1419 8109
1419 8114
1419 8123
1419 8149
1419 8162
1419 8170
1419 8245
1420 1718
1421 4654
1421 6067
1421 7527
1422 2394
1422 2406
1422 2759
1422 4131
1423 3739
1423 4566
1423 5383
1423 5594
1423 7429
1423 7732
1424 1601
1424 1978
1424 3603
1424 3662
1424 3904
1424 4085
1424 4686
1424 4917
1424 4946
1424 5622
1424 5627
1424 5646
1424 5657
1424 5800
1424 6196
1424 6336
1424 7621
1425 2462
1425 6338
1425 7155
1425 7609
1426 1549
1426 2271
1426 2318
1426 3104
1426 3280
1426 3396
1426 3566
1426 3884
1426 3920
1426 4052
1426 4249
1426 4714
1426 5078
1426 5498
1426 5824
1426 5858
1426 6054
1426 6259
1426 6414
1426 6574
1426 6704
1426 6849
1426 6907
1426 7065
1426 7408
1426 7412
1426 7698
1426 7755
1426 7811
1426 7974
1426 8119
1427 1480
1427 2000
1427 2074
1427 2140
1427 2169
1427 2302
1427 2520
1427 3034
1427 3352
1427 3414
1427 3575
1427 3849
1427 4108
1427 4178
1427 4307
1427 4311
1427 4399
1427 4578
1427 4804
1427 4833
1427 5450
1427 5473
1427 5638
1427 5647
1427 5764
1427 5802
1427 5914
1427 6028
1427 6625
1427 6990
1427 7124
1427 7281
1427 7334
1427 7400
1427 7520
1427 7833
1427 8049
1428 3379
1428 4470
1428 5188
1428 5634
1429 1429
1429 2726
1429 3219
1429 3860
1429 4793
1429 5130
1429 5308
1429 5342
1429 6012
1429 7281
1430 1826
1430 1962
1430 2759
1430 2869
1430 3463
1430 4066
1430 4144
1430 4223
1430 4623
1430 4696
1430 5329
1430 5383
1430 5391
1430 6096
1430 6874
1430 7661
1432 4348
1433 1433
1433 1454
1433 1549
1433 1575
1433 1684
1433 1741
1433 1769
1433 1890
1433 1928
1433 2005
1433 2105
1433 2119
1433 2257
1433 2293
1433 2390
1433 2425
1433 2441
1433 2510
1433 2623
1433 2644
1433 2648
1433 2681
1433 2776
1433 2847
1433 2904
1433 2995
1433 3008
1433 3104
1433 3133
1433 3141
1433 3153
1433 3293
1433 3427
1433 3530
1433 3718
1433 3730
1433 3751
1433 3884
1433 3962
1433 4028
1433 4080
1433 4150
1433 4249
1433 4686
1433 4713
1433 4714
1433 4911
1433 4950
1433 5010
1433 5078
1433 5111
1433 5204
1433 5245
1433 5266
1433 5393
1433 5498
1433 5546
1433 5552
1433 5646
1433 5716
1433 5726
1433 5742
1433 5800
1433 5824
1433 6110
1433 6208
1433 6259
1433 6469
1433 6574
1433 6773
1433 6827
1433 6866
1433 6907
1433 6949
1433 7036
1433 7126
1433 7164
1433 7181
1433 7219
1433 7246
1433 7257
1433 7274
1433 7408
1433 7412
1433 7492
1433 7607
1433 7646
1433 7705
1433 7811
1433 7890
1433 7902
1433 7929
1433 7991
1433 8049
1433 8062
1433 8119
1434 3751
1435 1465
1435 2219
1435 3826
1435 4230
1435 4773
1435 6882
1435 7190
1435 7217
1435 7466
1435 7574
1436 1436
1436 2869
1436 4397
1436 5544
1437 1536
1437 2483
1437 2598
1437 3292
1437 4356
1437 5126
1437 5212
1437 5291
1437 6141
1437 6685
1437 6690
1437 6815
1437 7276
1437 8139
1438 1464
1438 8170
1439 2957
1439 5342
1439 6382
1440 5226
1441 3118
1441 4519
1441 6912
1441 7473
1442 1959
1442 5678
1442 6407
1443 4675
1443 6655
1443 7989
1444 4100
1444 5874
1445 1718
1445 1792
1445 2502
1445 2581
1445 3087
1445 3309
1445 3373
1445 4279
1445 4294
1445 4296
1445 4578
1445 5083
1445 5151
1445 5766
1445 7949
1446 2006
1446 2059
1446 2071
1446 2453
1446 2557
1446 2862
1446 2863
1446 3118
1446 3627
1446 4103
1446 4399
1446 4513
1446 4778
1446 4795
1446 4933
1446 5005
1446 5997
1446 6634
1446 7268
1446 7522
1446 7881
1446 8012
1447 2293
1448 3015
1448 3580
1448 3937
1448 4304
1448 4667
1448 5352
1448 5454
1448 5507
1448 5546
1448 5674
1448 5880
1448 6111
1448 6683
1448 7035
1448 8124
1448 8164
1449 2048
1449 2364
1449 3572
1449 3653
1449 5732
1449 6578
1449 7386
1450 1450
1450 3826
1450 4945
1450 6281
1451 2762
1451 3440
1451 3826
1451 4963
1451 5701
1451 5983
1451 6515
1451 7241
1451 7709
1452 4348
1452 4991
1452 7034
1452 7346
1452 7383
1454 1478
1454 1729
1454 2133
1454 2296
1454 2407
1454 2408
1454 2551
1454 3280
1454 3561
1454 3580
1454 4348
1454 4977
1454 5067
1454 5086
1454 5121
1454 5234
1454 5546
1454 5563
1454 5933
1454 6802
1454 6835
1454 7144
1454 7332
1454 7729
1454 7747
1455 2266
1455 2275
1455 2537
1455 3878
1455 5262
1455 6267
1455 6656
1455 7483
1455 7541
1456 1804
1456 1826
1456 1898
1456 3793
1456 5106
1456 5309
1456 7042
1456 7276
1456 7281
1456 7360
1456 7822
1457 4443
1457 7646
1459 1466
1459 1484
1459 1495
1459 1753
1459 1833
1459 1990
1459 2387
1459 2469
1459 2598
1459 2860
1459 2935
1459 2943
1459 3209
1459 3644
1459 3691
1459 4903
1459 4909
1459 4974
1459 5298
1459 5676
1459 6539
1459 6676
1459 6819
1459 7241
1459 7242
1459 7483
1459 7554
1459 7831
1459 7839
1459 8044
1460 3039
1461 7817
1462 7383
1463 2042
1463 3202
1463 3232
1463 5251
1463 7500
1463 7556
1464 1473
1464 1489
1464 1490
1464 1518
1464 1527
1464 1530
1464 1574
1464 1612
1464 1618
1464 1643
1464 1647
1464 1650
1464 1690
1464 1697
1464 1770
1464 1797
1464 1806
1464 1822
1464 1829
1464 1837
1464 1875
1464 1966
1464 1975
1464 1985
1464 1988
1464 1997
1464 2060
1464 2073
1464 2079
1464 2098
1464 2110
1464 2123
1464 2154
1464 2172
1464 2179
1464 2195
1464 2197
1464 2206
1464 2208
1464 2212
1464 2213
1464 2217
1464 2223
1464 2249
1464 2253
1464 2262
1464 2278
1464 2307
1464 2309
1464 2327
1464 2328
1464 2331
1464 2346
1464 2391
1464 2428
1464 2443
1464 2458
1464 2459
1464 2462
1464 2465
1464 2499
1464 2502
1464 2543
1464 2554
1464 2558
1464 2565
1464 2609
1464 2618
1464 2670
1464 2694
1464 2704
1464 2708
1464 2714
1464 2730
1464 2743
1464 2751
1464 2756
1464 2778
1464 2791
1464 2803
1464 2804
1464 2806
1464 2845
1464 2893
1464 2899
1464 2915
1464 2930
1464 2953
1464 2972
1464 2987
1464 3007
1464 3023
1464 3034
1464 3069
1464 3087
1464 3153
1464 3196
1464 3237
1464 3246
1464 3249
1464 3254
1464 3280
1464 3282
1464 3284
1464 3309
1464 3325
1464 3367
1464 3373
1464 3389
1464 3407
1464 3410
1464 3440
1464 3491
1464 3513
1464 3514
1464 3520
1464 3527
1464 3529
1464 3542
1464 3553
1464 3559
1464 3572
1464 3592
1464 3604
1464 3634
1464 3653
1464 3666
1464 3694
1464 3698
1464 3713
1464 3736
1464 3744
1464 3765
1464 3776
1464 3784
1464 3820
1464 3844
1464 3867
1464 3873
1464 3883
1464 3897
1464 3898
1464 3903
1464 3907
1464 3909
1464 3916
1464 3922
1464 3930
1464 3944
1464 3959
1464 3967
1464 4011
1464 4019
1464 4093
1464 4099
1464 4138
1464 4210
1464 4242
1464 4309
1464 4313
1464 4314
1464 4320
1464 4344
1464 4356
1464 4360
1464 4376
1464 4380
1464 4404
1464 4413
1464 4437
1464 4462
1464 4489
1464 4495
1464 4500
1464 4505
1464 4518
1464 4540
1464 4584
1464 4634
1464 4682
1464 4687
1464 4710
1464 4739
1464 4741
1464 4743
1464 4766
1464 4776
1464 4777
1464 4799
1464 4817
1464 4822
1464 4833
1464 4844
1464 4859
1464 4884
1464 4886
1464 4930
1464 4935
1464 4943
1464 4974
1464 4992
1464 5011
1464 5012
1464 5028
1464 5036
1464 5047
1464 5064
1464 5088
1464 5101
1464 5109
1464 5110
1464 5144
1464 5156
1464 5159
1464 5168
1464 5170
1464 5171
1464 5198
1464 5214
1464 5216
1464 5267
1464 5295
1464 5296
1464 5309
1464 5315
1464 5328
1464 5342
1464 5392
1464 5416
1464 5419
1464 5429
1464 5462
1464 5471
1464 5494
1464 5505
1464 5507
1464 5562
1464 5572
1464 5582
1464 5590
1464 5668
1464 5676
1464 5693
1464 5698
1464 5753
1464 5764
1464 5785
1464 5823
1464 5837
1464 5838
1464 5841
1464 5862
1464 5873
1464 5887
1464 5888
1464 5917
1464 5922
1464 5927
1464 5953
1464 5963
1464 5987
1464 6024
1464 6041
1464 6044
1464 6055
1464 6057
1464 6072
1464 6110
1464 6116
1464 6136
1464 6208
1464 6233
1464 6245
1464 6247
1464 6277
1464 6300
1464 6306
1464 6315
1464 6324
1464 6325
1464 6352
1464 6353
1464 6360
1464 6366
1464 6406
1464 6413
1464 6482
1464 6485
1464 6505
1464 6511
1464 6516
1464 6522
1464 6534
1464 6552
1464 6569
1464 6587
1464 6600
1464 6633
1464 6643
1464 6728
1464 6739
1464 6770
1464 6776
1464 6777
1464 6788
1464 6793
1464 6808
1464 6825
1464 6830
1464 6832
1464 6833
1464 6836
1464 6857
1464 6869
1464 6881
1464 6885
1464 6886
1464 6949
1464 6959
1464 6963
1464 6965
1464 6966
1464 6976
1464 6995
1464 7011
1464 7015
1464 7036
1464 7070
1464 7089
1464 7141
1464 7146
1464 7150
1464 7164
1464 7171
1464 7184
1464 7197
1464 7214
1464 7223
1464 7270
1464 7276
1464 7281
1464 7336
1464 7342
1464 7370
1464 7375
1464 7387
1464 7401
1464 7406
1464 7421
1464 7475
1464 7478
1464 7491
1464 7518
1464 7525
1464 7555
1464 7570
1464 7591
1464 7631
1464 7632
1464 7649
1464 7650
1464 7679
1464 7683
1464 7690
1464 7691
1464 7706
1464 7708
1464 7719
1464 7731
1464 7733
1464 7739
1464 7771
1464 7781
1464 7808
1464 7812
1464 7817
1464 7822
1464 7825
1464 7845
1464 7861
1464 7862
1464 7885
1464 7927
1464 7941
1464 7950
1464 7965
1464 7976
1464 7981
1464 7982
1464 7983
1464 7997
1464 8003
1464 8004
1464 8023
1464 8031
1464 8047
1464 8102
1464 8127
1464 8129
1464 8142
1464 8153
1464 8168
1464 8193
1464 8213
1465 1473
1465 1482
1465 1631
1465 1673
1465 1806
1465 1816
1465 1869
1465 1886
1465 1967
1465 1988
1465 1990
1465 2015
1465 2022
1465 2073
1465 2169
1465 2195
1465 2219
1465 2352
1465 2360
1465 2367
1465 2374
1465 2391
1465 2462
1465 2467
1465 2505
1465 2571
1465 2572
1465 2580
1465 2727
1465 2780
1465 2817
1465 2876
1465 3019
1465 3021
1465 3204
1465 3209
1465 3274
1465 3310
1465 3356
1465 3410
1465 3411
1465 3528
1465 3582
1465 3592
1465 3653
1465 3661
1465 3693
1465 3784
1465 3839
1465 3881
1465 3903
1465 4073
1465 4144
1465 4291
1465 4416
1465 4475
1465 4534
1465 4677
1465 4833
1465 4902
1465 4986
1465 4991
1465 5015
1465 5126
1465 5187
1465 5355
1465 5455
1465 5684
1465 5693
1465 5696
1465 5697
1465 5785
1465 5874
1465 5896
1465 5917
1465 6000
1465 6011
1465 6096
1465 6097
1465 6103
1465 6126
1465 6160
1465 6194
1465 6281
1465 6312
1465 6328
1465 6329
1465 6352
1465 6621
1465 6654
1465 6719
1465 6722
1465 6791
1465 6870
1465 6918
1465 7022
1465 7186
1465 7188
1465 7242
1465 7360
1465 7374
1465 7385
1465 7463
1465 7562
1465 7596
1465 7597
1465 7716
1465 7857
1465 7870
1465 7897
1465 8013
1465 8123
1465 8149
1465 8207
1466 1992
1466 2130
1466 2501
1466 2529
1466 2598
1466 2687
1466 2700
1466 3087
1466 3089
1466 3209
1466 3225
1466 3246
1466 3249
1466 3372
1466 3392
1466 3430
1466 3448
1466 3499
1466 3691
1466 4235
1466 4399
1466 4733
1466 5007
1466 5117
1466 5214
1466 5329
1466 5467
1466 5484
1466 5566
1466 5785
1466 5986
1466 5999
1466 6090
1466 6095
1466 6103
1466 6145
1466 6263
1466 6270
1466 6281
1466 6327
1466 6396
1466 7019
1466 7034
1466 7180
1466 7346
1466 7374
1466 7393
1466 7394
1466 7421
1466 7563
1466 7768
1466 7912
1466 7944
1466 8020
1466 8045
1467 1847
1467 1976
1467 2101
1467 2406
1467 2481
1467 4347
1467 4399
1467 5216
1467 6716
1467 7276
1467 7281
1467 7731
1467 8109
1467 8162
1469 2687
1470 3957
1471 2964
1471 3521
1471 3751
1471 4443
1471 4929
1471 4947
1471 4950
1471 5622
1471 5627
1471 5678
1471 5824
1471 6053
1471 6414
1471 6580
1471 6739
1471 6866
1471 7125
1471 7246
1471 7332
1471 7391
1471 7509
1473 3348
1473 3452
1473 7561
1473 7563
1474 6631
1475 7275
1475 7823
1476 3826
1476 6116
1476 8144
1477 5541
1477 6477
1478 2408
1478 2540
1478 4511
1478 4871
1478 4990
1478 6799
1478 7529
1479 2201
1479 3086
1479 3274
1479 3347
1479 3463
1479 3834
1479 4143
1479 4291
1479 5328
1479 6161
1479 6208
1479 6236
1479 6353
1479 6833
1479 7413
1479 7423
1479 7438
1479 8049
1480 4773
1480 7112
1480 7190
1481 1530
1481 1829
1481 2071
1481 2204
1481 2598
1481 2869
1481 3166
1481 3530
1481 3592
1481 3857
1481 4132
1481 4807
1481 5291
1481 5462
1481 5594
1481 5764
1481 5927
1481 5946
1481 6162
1481 6632
1481 6793
1481 7015
1481 7268
1481 7360
1481 8123
1482 3925
1482 4939
1482 5066
1482 5067
1482 5234
1482 5261
1482 5552
1482 7361
1482 7957
1483 7694
1484 1636
1484 5517
1484 5802
1484 6661
1484 7251
1484 7438
1484 7760
1485 5216
1486 3393
1486 4814
1487 7360
1488 4447
1488 5308
1488 6631
1489 2966
1489 4586
1490 1695
1490 2156
1490 2280
1490 2710
1490 3132
1490 3847
1490 4349
1490 4770
1490 5809
1490 6240
1490 6685
1490 6787
1490 7395
1490 7564
1490 7997
1490 8139
1491 1526
1491 4520
1492 5253
1493 2293
1494 2642
1495 1530
1495 1717
1495 1829
1495 2114
1495 2194
1495 2278
1495 2317
1495 2404
1495 2406
1495 2462
1495 2585
1495 2743
1495 2869
1495 3103
1495 3209
1495 3247
1495 3373
1495 3407
1495 3410
1495 3544
1495 4041
1495 4069
1495 4187
1495 4347
1495 4474
1495 4695
1495 4736
1495 4804
1495 5015
1495 5342
1495 5896
1495 5927
1495 5953
1495 6145
1495 6208
1495 6272
1495 6325
1495 6530
1495 6661
1495 6670
1495 6678
1495 6896
1495 6908
1495 7071
1495 7089
1495 7190
1495 7281
1495 7385
1495 7406
1495 7438
1495 7467
1495 7563
1495 8013
1495 8023
1495 8049
1495 8158
1496 2179
1496 4158
1496 6735
1496 6759
1497 6075
1498 1804
1498 1805
1498 1826
1498 1925
1498 5065
1498 5593
1498 5753
1498 5824
1498 7011
1498 7042
1498 7080
1498 7276
1498 7403
1498 7591
1498 7605
1498 7632
1498 7684
1498 7720
1498 7817
1498 7822
1498 7824
1498 7855
1498 8047
1498 8109
1498 8162
1498 8170
1499 7034
1499 7276
1499 7632
1500 3309
1501 4489
1502 1988
1502 2083
1502 4158
1502 4654
1503 7217
1503 8151
1504 6587
1504 6939
1504 6966
1504 7167
1504 7276
1504 7691
1505 2949
1505 6779
1506 1598
1506 4227
1506 6791
1506 7275
1507 1507
1507 1591
1507 2937
1507 4586
1507 5802
1507 6776
1507 7281
1507 8144
1508 2293
1508 3491
1508 5951
1509 1726
1509 3699
1510 6053
1510 6409
1511 1599
1511 1769
1511 1803
1511 2277
1511 3025
1511 3566
1511 3725
1511 4085
1511 4814
1511 5164
1511 5204
1511 5843
1511 6089
1511 6724
1511 6843
1511 7122
1511 7376
1511 7605
1511 7608
1511 7646
1511 7890
1511 8015
1511 8216
1512 7034
1513 1612
1513 1822
1513 1829
1513 1963
1513 2073
1513 2178
1513 2179
1513 2189
1513 2264
1513 2458
1513 3209
1513 3342
1513 3373
1513 3494
1513 3530
1513 3573
1513 3575
1513 3784
1513 3857
1513 3912
1513 4279
1513 4347
1513 4578
1513 4696
1513 4723
1513 4736
1513 4739
1513 4833
1513 5046
1513 5110
1513 5422
1513 5638
1513 5691
1513 5802
1513 5830
1513 5914
1513 5929
1513 5953
1513 6048
1513 6082
1513 6090
1513 6266
1513 6375
1513 6406
1513 6456
1513 6462
1513 6711
1513 6793
1513 6833
1513 7197
1513 7268
1513 7349
1513 7555
1513 7600
1513 7665
1513 8089
1514 3280
1514 3521
1514 3580
1514 4164
1514 4511
1514 5197
1514 5454
1514 5674
1514 5788
1514 7383
1514 7727
1516 4719
1517 1831
1518 1575
1518 1618
1518 1710
1518 1919
1518 1926
1518 2290
1518 3116
1518 3615
1518 4223
1518 4294
1518 4621
1518 4778
1518 5075
1518 5606
1518 5661
1518 5697
1518 5762
1518 6290
1518 6323
1518 7259
1518 7483
1518 8039
1519 4947
1519 7376
1520 7029
1521 6372
1521 7580
1521 7848
1522 2686
1523 2186
1523 2499
1523 2537
1523 3168
1523 3507
1523 4153
1523 4431
1523 5898
1523 7251
1524 2073
1524 2114
1524 4399
1524 4460
1524 6352
1524 6383
1524 6407
1524 8077
1524 8095
1525 5816
1525 7813
1526 2114
1526 2346
1526 2618
1526 3223
1526 3325
1526 3334
1526 3793
1526 4202
1526 4375
1526 4540
1526 4764
1526 4808
1526 4935
1526 5294
1526 5572
1526 5753
1526 5952
1526 6286
1526 6633
1526 6976
1526 7011
1526 7036
1526 7171
1526 7191
1526 7197
1526 7387
1526 7570
1526 7591
1526 7632
1526 7649
1526 7683
1526 7709
1526 7719
1526 7794
1526 7817
1526 7853
1526 7927
1526 7941
1526 8047
1527 1740
1527 1826
1527 2073
1527 2099
1527 2179
1527 2481
1527 2759
1527 3165
1527 3507
1527 3530
1527 4100
1527 4291
1527 4417
1527 4586
1527 4604
1527 4802
1527 5336
1527 6209
1527 6328
1527 6383
1527 6621
1527 7015
1527 7047
1527 7463
1527 7473
1527 7706
1527 8168
1528 2001
1528 5449
1528 7215
1529 2100
1529 2569
1529 3662
1529 5797
1529 6259
1530 1530
1530 2266
1530 2609
1530 2623
1530 2660
1530 2957
1530 3507
1530 3544
1530 3996
1530 4294
1530 5226
1530 5525
1530 6267
1530 6272
1530 7164
1530 7191
1532 5273
1533 2890
1533 3202
1533 3373
1533 6053
1533 6259
1533 6779
1533 6802
1533 7040
1533 7127
1533 7347
1533 8223
1534 1534
1534 2543
1534 5108
1534 6269
1534 6656
1536 2528
1536 3508
1536 4641
1536 6096
1536 6141
1536 6573
1536 6587
1536 7091
1536 7235
1536 7276
1536 7935
1536 8007
1537 1548
1537 1804
1537 1826
1537 2543
1537 2561
1537 3394
1537 3483
1537 3684
1537 3950
1537 4456
1537 4974
1537 5753
1537 5784
1537 5885
1537 6573
1537 6967
1537 6970
1537 6976
1537 7011
1537 7016
1537 7171
1537 7226
1537 7276
1537 7387
1537 7403
1537 7491
1537 7570
1537 7591
1537 7632
1537 7649
1537 7650
1537 7683
1537 7684
1537 7688
1537 7719
1537 7720
1537 7794
1537 7817
1537 7819
1537 7824
1537 7927
1537 7941
1537 7950
1537 8003
1537 8170
1538 1875
1539 2227
1539 2406
1539 2472
1539 2481
1539 2623
1539 3309
1539 5953
1539 6110
1539 6481
1539 7164
1539 7406
1539 7832
1539 7875
1539 8049
1540 3098
1540 3410
1541 5526
1542 3572
1542 6939
1543 2942
1543 7087
1545 1816
1545 1829
1545 2686
1545 3356
1545 4187
1545 4473
1545 4975
1545 6208
1545 7406
1545 7937
1546 6336
1547 3497
1548 1981
1548 2059
1548 2367
1548 2529
1548 2609
1548 2618
1548 2687
1548 2759
1548 2938
1548 3126
1548 3457
1548 3793
1548 4020
1548 4515
1548 4596
1548 4992
1548 5296
1548 5366
1548 5660
1548 5661
1548 5662
1548 5667
1548 5669
1548 5676
1548 5697
1548 5871
1548 6069
1548 6763
1548 6791
1548 6800
1548 6896
1548 6908
1548 7214
1548 7631
1548 7937
1549 2042
1549 2133
1549 2408
1549 2551
1549 2591
1549 3015
1549 3039
1549 3580
1549 3810
1549 3818
1549 3925
1549 3937
1549 3980
1549 4164
1549 4445
1549 4667
1549 4713
1549 4977
1549 5090
1549 5169
1549 5215
1549 5240
1549 5507
1549 5546
1549 5552
1549 5674
1549 5726
1549 6002
1549 6111
1549 6563
1549 6752
1549 7291
1549 7500
1549 7747
1549 8124
1549 8175
1550 6259
1550 7500
1551 6968
1552 3494
1552 4755
1553 7142
1554 6162
1555 3739
1555 4566
1555 4779
1555 5935
1555 7275
1555 7429
1556 2179
1556 3108
1556 4230
1556 4399
1556 6379
1557 1600
1557 1826
1557 2250
1557 2532
1557 2862
1557 2867
1557 2957
1557 3373
1557 3391
1557 5065
1557 5593
1557 6162
1557 6383
1557 6939
1557 7011
1557 7276
1557 7321
1557 7396
1557 7691
1557 7817
1557 7824
1557 7855
1557 7898
1557 8047
1557 8109
1557 8162
1558 7694
1560 1560
1560 2761
1560 2914
1560 4712
1561 3829
1562 1768
1562 3572
1562 4736
1562 5262
1562 7986
1563 7947
1563 8135
1565 2121
1565 3545
1565 7087
1566 1951
1566 3624
1566 3924
1566 6022
1567 2869
1567 5189
1568 7034
1569 3918
1569 7727
1570 2293
1570 2354
1570 2441
1570 2906
1570 3015
1570 3083
1570 3293
1570 3306
1570 3318
1570 3491
1570 3758
1570 4686
1570 5095
1570 5164
1570 5549
1570 5646
1570 5797
1570 6180
1570 6299
1570 6326
1570 6336
1570 6468
1570 6907
1570 6949
1570 7272
1570 7736
1570 8124
1571 1772
1571 3446
1571 3530
1571 4578
1571 5327
1571 5365
1571 5660
1571 5671
1571 8089
1572 3173
1572 6282
1574 1798
1574 2127
1574 3414
1574 3826
1574 3915
1574 5108
1574 5308
1574 6267
1574 7935
1574 8151
1575 1575
1575 1598
1575 1741
1575 1809
1575 2377
1575 2404
1575 2508
1575 2557
1575 2618
1575 2645
1575 3092
1575 3294
1575 3352
1575 3373
1575 3448
1575 3530
1575 3966
1575 4033
1575 4189
1575 4513
1575 4956
1575 5237
1575 5386
1575 5697
1575 5751
1575 5946
1575 5988
1575 6347
1575 6477
1575 6929
1575 7069
1575 7154
1575 7193
1575 7264
1575 7281
1575 7515
1578 7346
1579 3034
1579 3885
1579 3940
1579 5130
1579 6803
1579 7141
1580 6634
1581 2390
1582 1599
1582 1803
1582 3104
1582 3456
1582 3532
1582 3925
1582 5171
1582 6033
1582 6259
1582 6486
1582 6574
1582 6907
1582 7492
1582 7937
1583 1583
1583 3118
1585 7276
1586 1707
1586 4025
1587 2763
1587 5274
1587 5650
1589 2555
1589 3232
1589 3662
1589 4148
1589 4164
1589 4977
1589 5234
1589 5674
1589 6211
1589 6728
1589 6802
1590 2141
1590 2764
1590 2967
1590 3100
1590 4036
1590 6402
1590 6542
1590 7002
1590 7047
1591 6632
1592 1607
1592 1893
1592 2408
1592 2619
1592 3104
1592 4398
1592 4950
1592 4977
1592 4994
1592 5546
1592 5610
1592 6111
1592 6259
1592 6496
1592 6715
1592 6867
1592 7003
1594 6632
1595 5217
1596 3949
1596 4094
1596 7034
1597 1597
1597 1698
1597 2481
1597 2839
1597 4399
1597 4712
1597 5130
1597 5462
1597 5764
1597 6062
1597 6511
1598 1921
1598 2680
1598 2836
1598 3352
1598 3373
1598 3392
1598 3627
1598 4245
1598 4310
1598 4344
1598 4513
1598 4680
1598 4778
1598 5027
1598 5914
1598 7562
1598 7579
1598 7937
1599 2269
1599 2314
1599 2390
1599 2408
1599 2540
1599 2555
1599 2952
1599 3039
1599 3280
1599 3326
1599 3425
1599 3510
1599 3561
1599 3651
1599 3925
1599 4148
1599 4293
1599 4516
1599 4715
1599 4843
1599 4965
1599 4977
1599 5066
1599 5121
1599 5176
1599 5192
1599 5234
1599 5261
1599 5338
1599 5352
1599 5507
1599 5546
1599 5622
1599 5674
1599 5839
1599 6111
1599 6506
1599 6540
1599 6772
1599 6802
1599 7105
1599 7144
1599 7318
1599 7332
1599 7500
1599 7727
1599 7747
1599 7985
1599 8255
1600 1600
1600 1892
1600 1963
1600 2121
1600 2623
1600 2845
1600 3103
1600 3107
1600 3141
1600 3165
1600 3196
1600 3446
1600 3524
1600 3627
1600 3873
1600 4368
1600 4431
1600 4474
1600 4487
1600 4586
1600 4773
1600 4804
1600 4943
1600 5050
1600 5329
1600 5612
1600 5638
1600 5697
1600 5953
1600 6008
1600 6110
1600 6208
1600 6304
1600 6393
1600 6406
1600 6456
1600 6477
1600 6550
1600 6944
1600 7029
1600 7054
1600 7164
1600 7261
1600 7292
1600 7562
1600 7616
1600 7871
1600 7960
1600 8012
1600 8089
1601 1694
1601 1729
1601 1736
1601 1785
1601 2136
1601 2296
1601 2408
1601 2412
1601 2540
1601 2551
1601 2555
1601 2644
1601 3058
1601 3060
1601 3280
1601 3409
1601 3472
1601 3651
1601 3733
1601 3810
1601 3925
1601 3984
1601 4164
1601 4370
1601 4439
1601 4445
1601 4507
1601 4516
1601 4614
1601 4689
1601 4715
1601 4891
1601 4939
1601 5197
1601 5271
1601 5454
1601 5546
1601 5712
1601 6183
1601 6330
1601 6381
1601 6520
1601 6540
1601 6689
1601 6732
1601 6847
1601 8062
1601 8066
1601 8175
1602 2598
1602 2609
1602 3325
1602 4509
1602 4594
1602 4751
1602 7679
1603 2111
1603 2267
1603 2312
1603 2543
1603 3363
1603 3404
1603 4275
1603 4995
1603 5044
1603 5253
1603 6788
1603 6976
1603 7591
1603 7723
1603 7824
1605 3959
1606 6036
1607 1952
1607 3318
1607 5007
1607 7391
1607 7394
1608 3484
1609 4580
1610 2444
1610 3309
1610 3691
1610 3702
1610 4144
1610 6791
1610 7235
1610 8215
1611 6654
1611 6874
1611 7396
1611 7990
1612 1618
1612 1706
1612 1981
1612 2957
1612 3309
1612 3524
1612 3684
1612 3847
1612 3995
1612 4143
1612 4199
1612 4773
1612 4804
1612 4811
1612 5203
1612 5472
1612 5871
1612 6090
1612 6165
1612 6852
1612 6883
1612 6928
1612 6939
1612 6940
1612 6967
1612 7011
1612 7080
1612 7167
1612 7265
1612 7276
1612 7281
1612 7632
1612 7684
1612 7720
1612 7824
1612 7934
1612 7992
1612 8047
1612 8109
1612 8162
1613 2862
1613 3865
1613 6930
1613 7042
1613 7080
1613 7276
1613 7632
1613 7819
1613 7824
1613 8047
1613 8109
1613 8162
1614 2046
1614 4545
1614 6435
1614 7829
1615 7011
1615 7276
1616 2043
1616 2292
1616 4844
1616 5148
1616 5368
1616 6311
1616 7529
1616 7574
1616 8117
1617 3045
1618 1826
1618 1981
1618 1992
1618 2182
1618 2576
1618 2805
1618 3262
1618 3507
1618 3684
1618 3890
1618 3891
1618 3963
1618 4192
1618 4199
1618 4356
1618 4909
1618 4943
1618 5315
1618 5484
1618 5606
1618 5609
1618 5742
1618 5976
1618 6082
1618 6154
1618 6323
1618 6369
1618 6393
1618 6566
1618 7011
1618 7054
1618 7080
1618 7164
1618 7276
1618 7292
1618 7326
1618 7406
1618 7709
1618 7824
1618 7871
1618 7935
1618 7999
1618 8109
1618 8162
1619 1619
1619 1829
1619 2083
1619 2430
1619 3485
1619 3864
1619 3897
1619 4399
1619 4848
1619 6184
1619 6290
1619 6870
1619 6900
1619 7409
1619 8226
1620 2408
1620 6739
1621 6364
1622 1622
1622 5764
1622 6162
1622 7749
1623 2456
1624 1919
1624 3053
1624 4972
1624 5661
1624 6893
1624 7268
1624 7555
1625 1946
1625 3089
1625 5245
1625 6523
1625 7034
1625 7346
1625 7394
1627 1658
1627 2780
1627 3183
1627 3592
1627 5714
1627 7369
1627 7976
1629 6141
1629 6195
1630 4294
1632 5854
1633 3092
1633 4464
1633 7562
1634 2458
1634 3063
1634 4051
1634 4526
1634 4741
1634 4804
1634 4930
1634 5046
1634 5802
1634 5952
1634 7406
1634 8158
1635 1756
1635 5216
1636 2598
1636 5106
1636 6067
1636 6634
1636 7541
1637 5924
1637 7208
1638 5342
1639 2001
1639 4585
1639 6735
1639 8217
1640 2752
1641 1892
1641 2314
1641 2408
1641 2544
1641 3580
1641 3818
1641 3973
1641 4284
1641 5454
1641 5726
1641 6519
1641 7288
1641 7383
1641 7727
1642 4792
1642 6414
1643 1643
1643 1804
1643 1822
1643 1878
1643 1900
1643 1905
1643 2101
1643 2598
1643 2604
1643 2885
1643 2957
1643 2966
1643 3033
1643 3107
1643 3355
1643 3530
1643 3774
1643 4586
1643 4773
1643 5291
1643 5342
1643 5802
1643 5896
1643 6267
1643 6339
1643 6393
1643 6477
1643 6535
1643 6656
1643 7015
1643 7047
1643 7172
1643 7292
1643 7360
1643 7555
1643 7562
1643 7592
1644 2752
1644 4384
1645 4249
1646 1815
1646 4397
1647 5778
1647 6940
1648 1959
1649 1709
1649 5216
1649 5305
1649 5871
1649 6449
1649 6990
1649 7180
1649 7937
1651 1651
1652 1729
1652 1922
1652 2540
1652 3060
1652 3918
1652 3925
1652 3937
1652 4348
1652 4445
1652 4563
1652 4891
1652 5066
1652 5086
1652 5507
1652 5622
1652 6506
1652 6845
1652 7500
1652 7506
1652 7747
1653 1653
1653 6559
1653 7242
1654 6694
1655 1729
1656 1889
1656 1928
1656 2293
1656 2390
1656 3280
1656 3521
1656 4249
1656 4419
1656 4929
1656 5468
1656 5771
1656 5824
1656 6248
1656 6432
1657 2269
1657 2314
1657 2540
1657 3092
1657 3662
1657 3984
1657 4715
1657 4977
1657 5113
1657 5121
1657 5176
1657 5338
1657 6218
1658 1658
1658 1905
1658 2567
1658 2885
1658 3573
1658 4523
1658 5309
1658 5698
1658 5714
1658 6543
1658 6955
1658 7748
1658 7976
1658 8266
1660 7738
1661 5996
1662 3089
1662 5329
1663 2648
1663 2715
1663 3051
1663 4512
1663 5338
1663 5498
1663 5641
1663 7376
1663 7890
1664 1981
1665 2872
1665 3306
1665 3438
1665 3455
1665 3532
1665 4814
1665 5171
1665 5290
1665 5702
1665 5729
1665 6053
1665 7090
1666 5171
1666 6259
1666 6658
1666 7275
1667 2408
1667 2540
1667 4977
1668 5862
1669 1699
1669 5983
1670 1893
1670 2330
1670 3521
1670 3532
1670 5162
1670 5164
1670 5181
1670 5468
1670 5824
1670 5877
1670 6496
1670 6935
1670 7646
1670 7800
1671 1740
1671 2598
1671 2955
1671 3219
1671 4712
1671 4874
1671 5572
1671 6286
1671 6388
1671 6633
1671 7322
1671 7400
1672 6156
1673 1853
1673 1905
1673 1919
1673 2078
1673 2121
1673 2189
1673 2266
1673 2598
1673 2660
1673 2704
1673 2767
1673 2862
1673 2886
1673 2957
1673 3122
1673 3206
1673 3355
1673 3467
1673 3486
1673 3599
1673 3618
1673 3700
1673 3902
1673 4222
1673 4256
1673 4572
1673 4773
1673 4778
1673 5262
1673 5291
1673 5526
1673 5979
1673 6069
1673 6106
1673 6213
1673 6364
1673 6372
1673 6517
1673 6613
1673 6656
1673 6734
1673 6784
1673 6812
1673 6836
1673 7011
1673 7217
1673 7244
1673 7373
1673 7473
1673 7587
1673 7615
1673 7840
1674 1925
1674 2245
1674 2269
1674 2390
1674 2504
1674 2968
1674 3039
1674 3159
1674 3284
1674 3656
1674 3665
1674 4084
1674 4689
1674 5142
1674 5396
1674 5680
1674 5843
1674 5880
1674 6498
1674 6506
1674 6540
1674 6592
1674 6683
1674 7025
1674 7500
1674 7957
1674 7985
1675 1875
1676 3202
1677 3865
1677 7049
1678 1826
1678 6941
1678 6976
1678 7822
1678 8047
1679 1679
1680 3089
1680 4673
1680 5284
1680 5569
1680 5785
1680 6240
1680 7034
1681 1826
1681 2862
1681 3280
1681 3684
1681 3895
1681 3950
1681 6967
1681 7011
1681 7276
1681 7591
1681 7632
1681 7689
1681 7719
1681 7817
1681 7824
1681 7927
1681 7999
1681 8047
1681 8109
1681 8162
1681 8170
1682 3840
1683 4164
1683 5281
1683 7383
1683 7727
1684 2234
1684 2408
1684 2434
1684 2540
1684 2758
1684 3727
1684 3925
1684 4274
1684 4715
1684 4977
1684 5234
1684 5261
1684 6111
1684 6211
1684 6982
1684 7332
1684 7569
1684 7727
1684 7736
1684 7851
1685 5329
1686 3691
1686 4991
1687 1990
1687 3778
1687 4257
1687 6259
1688 1799
1688 1916
1688 1931
1688 1981
1688 2636
1688 2911
1688 2918
1688 2977
1688 3021
1688 3691
1688 3924
1688 4073
1688 4475
1688 4949
1688 4991
1688 5391
1688 5517
1688 5571
1688 5738
1688 5757
1688 6145
1688 6283
1688 6449
1688 6587
1688 6791
1688 6911
1688 6943
1688 6946
1688 6966
1688 7670
1688 7782
1688 7990
1688 7998
1689 1918
1689 2277
1689 5403
1689 6568
1689 7097
1689 7372
1690 1773
1690 2598
1690 5154
1691 7632
1691 7824
1691 7927
1692 7527
1693 4747
1694 1803
1694 1928
1694 3925
1694 4443
1694 4610
1694 4827
1694 5800
1694 5824
1694 6248
1694 6580
1694 6843
1694 7929
1696 7957
1698 1698
1698 2237
1698 4399
1698 4654
1698 5785
1698 6062
1699 1699
1700 5875
1700 6889
1700 7731
1702 4762
1703 1829
1703 5816
1705 2378
1705 2624
1705 3049
1705 5171
1705 6362
1705 6685
1705 7034
1705 8139
1706 2091
1706 2404
1706 2406
1706 2536
1706 2609
1706 2623
1706 2911
1706 4131
1706 4802
1706 5329
1706 5900
1706 5953
1706 6022
1706 6186
1706 6188
1706 6208
1706 6249
1706 6407
1706 6661
1706 7164
1706 7406
1706 7937
1706 8004
1706 8092
1707 1826
1707 3679
1707 3915
1707 4081
1707 4670
1708 2073
1708 2114
1708 3457
1708 3530
1708 3653
1708 4793
1708 5658
1708 5662
1708 6791
1708 6817
1708 7562
1708 7630
1708 7631
1709 1709
1709 1822
1709 1963
1709 1981
1709 2101
1709 2106
1709 2266
1709 2326
1709 2406
1709 2478
1709 2609
1709 3084
1709 3494
1709 3507
1709 3536
1709 3629
1709 3890
1709 4057
1709 4199
1709 4230
1709 4475
1709 5212
1709 5383
1709 5484
1709 5571
1709 5691
1709 5735
1709 5753
1709 5953
1709 6032
1709 6090
1709 6165
1709 6186
1709 6401
1709 6406
1709 6573
1709 6587
1709 6763
1709 6898
1709 7021
1709 7235
1709 7398
1709 7406
1709 7476
1709 7491
1709 7632
1709 7680
1709 7691
1709 7743
1709 7822
1709 7824
1709 7937
1709 8109
1709 8149
1709 8162
1709 8188
1710 2609
1710 6090
1710 7937
1711 1711
1712 2378
1712 7381
1714 1804
1714 1900
1714 1919
1714 2416
1714 2623
1714 2805
1714 2886
1714 3122
1714 3141
1714 3206
1714 3216
1714 3499
1714 3507
1714 3595
1714 3684
1714 3890
1714 4093
1714 4192
1714 4431
1714 4586
1714 4654
1714 4661
1714 4663
1714 4773
1714 4821
1714 5000
1714 5108
1714 5145
1714 5254
1714 5291
1714 5661
1714 5820
1714 5938
1714 5946
1714 5965
1714 6267
1714 6393
1714 6587
1714 6631
1714 6651
1714 6656
1714 6711
1714 6836
1714 6859
1714 7080
1714 7190
1714 7191
1714 7254
1714 7555
1714 7587
1714 7615
1714 8115
1714 8220
1715 3089
1715 7034
1715 7346
1715 7393
1715 7733
1716 1716
1716 2562
1716 3112
1716 7386
1716 7691
1717 2291
1717 2756
1717 6311
1718 2437
1718 2788
1718 2814
1718 3580
1718 3661
1718 3960
1718 5291
1718 6627
1718 6712
1718 6795
1718 7087
1718 7949
1719 5866
1720 4737
1722 7563
1723 7207
1724 7125
1725 2551
1725 2648
1725 3015
1725 3280
1725 3650
1725 4115
1725 4511
1725 5726
1725 5824
1725 6089
1725 6111
1725 6231
1725 8124
1727 4993
1727 5098
1727 6077
1728 2957
1728 4895
1729 1978
1729 2441
1729 2644
1729 2673
1729 3058
1729 3438
1729 3596
1729 3834
1729 4464
1729 4843
1729 5314
1729 5478
1729 5632
1729 6109
1729 6724
1729 6739
1729 7090
1729 7332
1729 8053
1729 8205
1730 2890
1730 2909
1730 3309
1730 3475
1730 4284
1730 6240
1732 2660
1732 3246
1732 4399
1732 5816
1732 6343
1732 7015
1733 6379
1733 8144
1734 1734
1734 2001
1734 4399
1734 4930
1734 5525
1734 6352
1734 7420
1734 7704
1736 1978
1736 1989
1736 2551
1736 2555
1736 3104
1736 3818
1736 3937
1736 4150
1736 4814
1736 4939
1736 4947
1736 5020
1736 5066
1736 5197
1736 5461
1736 6111
1736 6248
1736 6498
1736 6739
1736 6935
1736 7045
1736 7318
1736 7929
1736 8062
1737 1925
1738 3224
1738 3657
1738 4399
1738 4962
1738 5329
1739 5273
1739 6815
1739 7011
1739 7080
1739 7276
1739 8109
1739 8162
1740 1806
1740 1815
1740 2072
1740 2250
1740 2507
1740 2805
1740 2862
1740 2919
1740 3251
1740 3826
1740 3852
1740 4431
1740 4916
1740 5218
1740 5262
1740 7235
1740 7782
1741 1741
1741 1854
1741 2119
1741 2257
1741 2293
1741 2425
1741 2510
1741 2602
1741 2648
1741 3133
1741 3153
1741 3331
1741 3651
1741 3808
1741 3962
1741 4020
1741 4713
1741 4714
1741 5266
1741 5403
1741 5498
1741 5646
1741 5774
1741 5800
1741 6025
1741 6028
1741 6336
1741 6519
1741 6866
1741 7090
1741 7126
1741 7160
1741 7181
1741 7274
1741 7408
1741 7412
1741 7492
1741 7607
1741 7811
1741 7929
1741 8119
1741 8232
1742 7974
1743 1905
1743 4586
1743 5291
1743 7264
1743 7360
1743 7788
1744 6162
1745 1898
1745 2115
1745 2276
1745 2430
1745 2478
1745 2972
1745 3317
1745 3522
1745 3528
1745 4539
1745 4586
1745 4696
1745 5001
1745 5583
1745 6027
1745 7562
1745 7580
1746 2481
1746 3668
1746 5130
1746 5279
1746 6158
1746 6874
1747 5003
1748 5243
1749 3202
1750 2598
1750 3774
1750 3783
1750 6083
1751 4164
1752 2967
1752 5735
1752 7391
1753 2346
1754 2478
1754 2609
1754 2636
1754 3730
1754 3841
1754 3846
1754 4051
1754 4158
1754 4294
1754 4706
1754 4949
1754 5114
1754 5346
1754 5594
1754 5989
1754 6243
1754 6710
1754 6791
1754 6939
1754 6941
1754 6943
1754 6946
1754 7591
1754 7822
1754 7919
1755 5634
1755 8009
1756 5065
1756 5594
1756 6735
1756 6939
1756 6946
1756 7773
1757 5291
1757 6535
1758 2900
1758 3309
1758 3516
1758 3818
1758 4445
1758 6111
1758 6533
1758 6802
1759 1759
1759 3045
1759 3309
1760 4723
1760 6511
1762 2509
1762 6627
1762 6814
1762 7465
1762 8232
1764 3216
1764 3935
1764 7656
1765 2189
1765 4578
1766 3219
1767 3491
1768 6825
1769 2234
1769 2408
1769 2591
1769 3280
1769 3818
1769 3925
1769 4326
1769 4387
1769 4445
1769 4715
1769 4733
1769 4843
1769 4964
1769 5066
1769 5090
1769 5121
1769 5507
1769 5546
1769 5552
1769 5563
1769 5674
1769 6111
1769 6381
1769 6414
1769 6689
1769 6802
1769 7048
1769 7727
1770 6141
1771 5880
1772 1878
1772 2099
1772 2250
1772 2294
1772 2505
1772 2598
1772 2976
1772 3658
1772 4071
1772 4166
1772 4394
1772 4751
1772 5262
1772 5289
1772 5874
1772 6754
1772 6874
1772 7072
1772 7190
1772 8109
1772 8162
1773 2237
1773 5953
1774 4249
1775 2945
1775 4480
1775 7260
1775 7280
1775 7344
1775 7571
1775 8155
1775 8160
1775 8178
1775 8195
1775 8203
1775 8219
1775 8227
1775 8230
1775 8256
1775 8257
1776 2121
1779 2551
1779 4977
1779 6845
1780 1949
1780 3995
1780 8145
1781 5284
1783 1875
1784 4199
1785 1889
1785 1892
1785 2293
1785 2960
1785 2964
1785 3058
1785 3083
1785 3456
1785 3596
1785 3603
1785 3751
1785 4004
1785 4052
1785 4150
1785 4379
1785 4464
1785 4946
1785 5461
1785 5489
1785 5507
1785 5602
1785 5680
1785 5771
1785 5824
1785 5843
1785 5858
1785 6109
1785 6234
1785 6248
1785 6739
1785 6843
1785 7334
1785 7481
1785 7621
1785 7733
1785 7946
1785 8066
1786 1821
1786 2408
1786 2540
1786 4248
1787 5874
1788 2229
1788 3309
1788 3935
1788 4584
1788 4878
1788 5065
1788 5484
1788 6184
1788 6379
1788 6644
1788 7656
1788 8106
1788 8213
1789 1905
1790 4732
1790 7532
1791 6832
1792 1792
1792 1891
1792 1900
1792 2786
1792 2853
1792 3141
1792 3516
1792 3644
1792 3849
1792 4201
1792 4347
1792 4477
1792 4656
1792 4758
1792 4843
1792 4939
1792 4956
1792 5197
1792 6106
1792 6184
1792 6226
1792 6379
1792 6915
1792 6916
1792 6976
1792 7011
1792 7238
1792 7615
1792 7788
1792 7794
1792 7927
1792 7939
1793 3575
1793 6407
1794 1875
1795 3937
1796 6930
1796 7080
1796 7276
1796 7824
1796 8047
1796 8109
1796 8162
1798 1816
1798 1988
1798 2216
1798 2397
1798 3494
1798 3499
1798 3575
1798 3860
1798 4035
1798 4187
1798 4356
1798 4712
1798 4804
1798 4878
1798 4997
1798 5638
1798 5785
1798 5914
1798 6225
1798 6304
1798 6319
1798 6454
1798 6528
1798 6557
1798 6651
1798 7012
1798 7055
1798 7106
1798 7191
1798 7197
1798 7262
1798 7410
1799 4416
1799 6625
1799 7034
1799 7839
1800 1800
1800 6510
1800 6682
1800 7784
1801 4417
1801 6329
1801 6479
1802 4778
1803 1926
1803 1978
1803 2310
1803 2540
1803 2551
1803 2555
1803 2819
1803 3058
1803 3060
1803 3451
1803 3580
1803 3651
1803 3733
1803 3818
1803 3904
1803 3918
1803 3925
1803 3984
1803 4084
1803 4146
1803 4293
1803 4398
1803 4439
1803 4445
1803 4450
1803 4511
1803 4689
1803 4715
1803 5008
1803 5234
1803 5352
1803 5507
1803 5546
1803 5824
1803 5880
1803 6111
1803 6218
1803 6248
1803 6704
1803 6809
1803 7041
1803 7100
1803 7132
1803 7144
1804 1917
1804 1981
1804 2179
1804 2576
1804 2609
1804 2662
1804 2804
1804 2887
1804 2918
1804 2938
1804 3118
1804 3138
1804 3309
1804 3373
1804 3386
1804 3860
1804 3873
1804 4022
1804 4354
1804 4682
1804 4688
1804 4706
1804 4804
1804 4846
1804 4943
1804 4975
1804 4997
1804 5004
1804 5075
1804 5315
1804 5388
1804 5393
1804 5484
1804 5555
1804 5606
1804 5691
1804 5742
1804 5757
1804 5806
1804 5845
1804 5854
1804 5871
1804 5874
1804 5953
1804 6082
1804 6090
1804 6148
1804 6420
1804 6454
1804 6831
1804 6959
1804 6990
1804 7115
1804 7164
1804 7169
1804 7197
1804 7378
1804 7385
1804 7406
1804 7838
1804 8016
1805 2414
1805 2867
1805 2969
1805 3057
1805 3309
1805 3494
1805 3935
1805 4199
1805 4216
1805 4616
1805 5065
1805 5484
1805 5757
1805 6032
1805 6090
1805 6289
1805 6806
1805 6988
1805 7571
1805 7919
1806 1806
1806 2117
1806 2729
1806 2805
1806 2862
1806 2975
1806 3018
1806 3270
1806 3857
1806 3974
1806 3979
1806 3995
1806 4006
1806 4103
1806 4482
1806 4623
1806 4773
1806 5110
1806 5308
1806 5336
1806 5638
1806 5762
1806 5802
1806 5856
1806 5927
1806 6208
1806 6267
1806 6288
1806 6375
1806 6454
1806 6748
1806 6925
1806 7147
1806 7160
1806 7161
1806 7562
1806 7871
1806 7938
1806 7953
1806 8023
1806 8123
1806 8262
1807 2210
1808 5859
1809 2502
1809 2598
1809 3087
1809 3118
1809 4586
1809 5445
1809 6270
1809 7214
1810 4399
1811 2378
1811 2699
1811 4399
1811 4416
1811 7385
1811 7596
1811 7597
1811 7857
1811 7870
1811 7897
1812 2571
1812 3103
1812 5741
1812 6376
1812 6879
1812 7164
1812 7281
1813 6248
1814 4210
1815 1829
1815 2001
1815 3243
1815 5606
1815 5785
1815 6428
1815 6968
1815 7548
1816 1826
1816 1905
1816 2101
1816 2308
1816 2537
1816 2598
1816 2660
1816 2767
1816 3691
1816 3867
1816 4199
1816 4509
1816 4572
1816 4654
1816 4751
1816 4903
1816 4909
1816 4957
1816 5088
1816 5269
1816 5348
1816 6287
1816 6454
1816 6535
1816 6694
1816 6751
1816 7011
1816 7042
1816 7165
1816 7352
1816 7360
1816 7684
1816 7720
1816 7726
1816 7899
1817 2001
1818 5824
1818 7553
1819 2495
1819 3280
1819 5133
1820 1821
1820 2296
1820 3280
1820 3409
1820 3963
1820 4450
1820 4782
1820 4812
1820 5479
1820 5505
1820 5558
1820 5956
1820 6883
1820 6928
1820 6964
1820 6967
1820 6970
1820 7265
1820 7490
1820 7824
1820 7927
1820 7934
1820 7999
1821 1870
1821 1895
1821 2296
1821 3280
1821 4348
1821 4511
1821 5086
1821 5352
1821 5377
1821 5933
1821 7553
1821 7678
1821 7727
1821 8053
1821 8205
1822 1826
1822 1865
1822 1990
1822 2214
1822 2266
1822 2378
1822 2418
1822 2505
1822 2788
1822 2876
1822 3019
1822 3270
1822 3360
1822 3373
1822 3463
1822 3539
1822 3700
1822 3880
1822 4036
1822 4191
1822 4416
1822 4778
1822 5212
1822 5262
1822 5348
1822 6372
1822 6656
1822 7154
1822 7190
1822 7235
1822 7352
1822 7360
1822 7473
1822 7592
1822 7596
1822 7597
1822 7615
1822 7788
1822 7857
1822 7870
1822 7871
1822 7897
1822 8149
1823 4728
1824 7348
1825 2869
1825 4157
1825 5065
1826 1835
1826 1917
1826 1981
1826 1988
1826 1998
1826 2155
1826 2197
1826 2211
1826 2214
1826 2309
1826 2375
1826 2406
1826 2469
1826 2481
1826 2609
1826 2662
1826 2742
1826 2751
1826 2770
1826 2804
1826 2843
1826 2859
1826 2869
1826 2911
1826 2938
1826 2970
1826 2972
1826 2977
1826 3057
1826 3192
1826 3210
1826 3240
1826 3246
1826 3325
1826 3421
1826 3437
1826 3452
1826 3474
1826 3488
1826 3494
1826 3526
1826 3563
1826 3575
1826 3627
1826 3655
1826 3860
1826 3871
1826 3891
1826 3930
1826 3955
1826 4100
1826 4124
1826 4158
1826 4199
1826 4216
1826 4285
1826 4320
1826 4368
1826 4375
1826 4429
1826 4432
1826 4543
1826 4557
1826 4564
1826 4565
1826 4653
1826 4674
1826 4686
1826 4688
1826 4699
1826 4725
1826 4739
1826 4804
1826 4811
1826 4914
1826 4943
1826 4957
1826 4975
1826 5010
1826 5012
1826 5015
1826 5023
1826 5100
1826 5110
1826 5111
1826 5117
1826 5135
1826 5182
1826 5243
1826 5260
1826 5268
1826 5315
1826 5325
1826 5383
1826 5416
1826 5484
1826 5516
1826 5606
1826 5626
1826 5638
1826 5663
1826 5691
1826 5741
1826 5742
1826 5757
1826 5760
1826 5802
1826 5838
1826 5871
1826 5874
1826 5885
1826 5894
1826 5953
1826 5987
1826 6032
1826 6034
1826 6048
1826 6049
1826 6082
1826 6090
1826 6110
1826 6134
1826 6145
1826 6148
1826 6165
1826 6186
1826 6208
1826 6213
1826 6239
1826 6243
1826 6254
1826 6255
1826 6278
1826 6279
1826 6298
1826 6303
1826 6304
1826 6344
1826 6372
1826 6393
1826 6405
1826 6406
1826 6418
1826 6456
1826 6469
1826 6489
1826 6508
1826 6545
1826 6548
1826 6602
1826 6614
1826 6651
1826 6690
1826 6713
1826 6773
1826 6810
1826 6827
1826 6852
1826 6854
1826 6879
1826 6928
1826 6964
1826 6974
1826 6988
1826 7005
1826 7006
1826 7032
1826 7036
1826 7054
1826 7057
1826 7066
1826 7109
1826 7137
1826 7140
1826 7197
1826 7219
1826 7223
1826 7233
1826 7235
1826 7251
1826 7257
1826 7269
1826 7274
1826 7295
1826 7306
1826 7316
1826 7341
1826 7350
1826 7395
1826 7406
1826 7455
1826 7555
1826 7598
1826 7670
1826 7692
1826 7726
1826 7759
1826 7774
1826 7792
1826 7832
1826 7841
1826 7860
1826 7875
1826 7905
1826 7934
1826 7937
1826 7976
1826 7992
1826 8016
1826 8027
1826 8080
1826 8089
1826 8091
1826 8102
1826 8149
1826 8177
1826 8188
1826 8199
1826 8233
1827 7651
1828 2086
1828 2307
1828 2458
1828 2708
1828 3127
1828 3377
1828 3530
1828 3670
1828 5036
1828 6407
1828 6791
1828 8004
1828 8023
1829 1900
1829 1905
1829 1919
1829 2189
1829 2275
1829 2519
1829 2537
1829 2598
1829 2623
1829 2660
1829 2702
1829 2719
1829 2767
1829 2805
1829 2876
1829 2957
1829 2961
1829 2989
1829 3019
1829 3118
1829 3134
1829 3141
1829 3355
1829 3423
1829 3465
1829 3530
1829 3544
1829 3804
1829 3849
1829 3867
1829 3886
1829 3890
1829 3944
1829 3956
1829 4093
1829 4127
1829 4291
1829 4572
1829 4586
1829 4661
1829 4676
1829 5006
1829 5108
1829 5216
1829 5291
1829 5319
1829 5472
1829 5637
1829 5690
1829 5834
1829 5881
1829 6343
1829 6412
1829 6440
1829 6517
1829 6535
1829 6550
1829 6575
1829 6651
1829 6836
1829 6898
1829 6912
1829 6993
1829 7292
1829 7352
1829 7360
1829 7373
1829 7483
1829 7580
1829 7587
1829 7592
1829 7636
1829 7788
1829 7840
1829 7899
1829 7900
1829 7939
1829 8051
1830 2598
1831 2103
1831 2845
1831 3944
1831 5291
1832 5106
1833 1878
1833 2071
1833 2460
1833 2759
1833 4114
1833 5642
1833 5697
1833 5874
1833 6710
1833 6791
1833 7385
1833 7596
1833 7597
1833 7857
1833 7870
1833 7897
1833 7959
1833 8036
1834 5696
1835 2957
1835 7011
1835 7824
1835 8109
1835 8162
1836 1836
1836 3826
1838 5824
1839 1839
1839 4399
1839 5620
1840 3918
1840 4348
1840 5563
1841 4929
1841 5489
1841 5824
1841 7621
1841 7646
1841 7929
1842 7408
1843 2444
1843 2571
1843 2859
1843 3019
1843 3132
1843 3488
1843 3643
1843 3870
1843 4475
1843 5517
1843 7235
1843 7321
1844 6152
1845 6382
1846 6654
1846 7167
1846 7422
1847 3358
1847 3653
1847 5638
1847 5854
1847 7190
1847 7360
1848 5696
1849 2609
1849 6640
1849 6915
1849 7012
1850 6280
1851 3456
1852 3089
1852 7413
1853 2345
1853 2720
1853 5830
1854 1854
1854 1959
1854 2082
1854 2345
1854 2979
1854 3881
1854 4722
1854 5542
1854 5678
1855 3486
1855 7042
1856 5308
1857 3468
1857 7042
1857 8170
1858 4399
1858 6141
1859 1922
1859 4516
1859 6689
1859 8164
1860 4536
1860 6505
1861 2931
1862 3544
1862 6632
1863 6870
1864 1901
1864 3700
1864 3704
1864 4100
1864 4227
1864 4538
1864 5408
1864 6194
1864 6280
1864 7242
1864 7445
1865 1898
1865 1950
1865 2140
1865 2365
1865 2374
1865 2780
1865 2853
1865 4158
1865 4201
1865 4303
1865 4509
1865 4578
1865 4723
1865 4798
1865 5617
1865 5802
1865 5885
1865 6543
1865 6874
1865 7034
1865 7396
1865 7580
1865 7833
1866 1866
1866 3309
1867 2121
1868 6795
1870 2407
1870 2551
1870 2591
1870 2819
1870 3089
1870 3937
1870 3984
1870 3995
1870 4164
1870 4511
1870 4689
1870 4977
1870 5066
1870 5454
1870 5552
1870 6129
1870 6685
1870 7332
1870 7383
1870 7681
1870 8139
1871 2275
1872 2095
1873 2495
1873 7646
1874 2037
1874 2310
1874 3456
1874 3818
1874 4348
1874 4370
1874 5464
1874 5563
1874 5772
1874 6496
1874 7605
1875 2048
1875 2049
1875 2147
1875 2610
1875 2709
1875 2953
1875 3148
1875 3722
1875 3936
1875 4154
1875 4250
1875 4391
1875 4657
1875 4710
1875 5301
1875 5799
1875 6219
1875 7294
1875 7599
1875 8144
1876 2498
1876 3265
1876 7483
1876 7831
1877 4360
1878 1878
1878 1892
1878 2111
1878 2140
1878 2189
1878 2217
1878 2266
1878 2406
1878 2424
1878 2480
1878 2521
1878 2529
1878 2623
1878 2881
1878 2938
1878 3050
1878 3089
1878 3210
1878 3507
1878 3524
1878 3575
1878 4187
1878 4347
1878 4399
1878 4482
1878 4493
1878 4618
1878 4804
1878 4966
1878 4997
1878 5015
1878 5046
1878 5110
1878 5262
1878 5279
1878 5308
1878 5555
1878 5571
1878 5661
1878 5729
1878 5757
1878 5785
1878 5802
1878 5854
1878 5953
1878 6000
1878 6011
1878 6048
1878 6076
1878 6082
1878 6206
1878 6208
1878 6266
1878 6302
1878 6325
1878 6355
1878 6530
1878 6756
1878 6763
1878 6782
1878 6791
1878 7091
1878 7164
1878 7180
1878 7248
1878 7369
1878 7406
1878 7555
1878 7900
1878 7937
1878 8004
1878 8016
1879 7610
1880 4734
1880 5212
1880 7235
1881 7394
1882 4481
1883 3227
1883 4933
1883 7449
1884 2598
1884 4101
1884 4224
1884 5960
1884 6247
1884 6355
1884 7011
1884 7276
1884 7534
1884 7894
1884 7896
1885 4452
1885 7155
1886 2912
1887 1892
1888 2083
1888 2862
1888 7491
1888 7632
1888 7817
1889 2995
1889 3058
1889 3747
1889 3965
1889 4085
1889 4686
1889 5627
1889 5797
1889 6496
1889 7122
1889 7412
1889 7517
1889 7605
1889 7985
1889 8237
1890 2133
1890 3580
1890 3810
1890 3984
1890 4574
1890 5197
1890 5726
1890 6002
1890 6381
1890 7372
1890 7383
1890 7727
1890 8175
1891 3453
1891 5074
1891 6893
1891 7299
1892 2303
1892 2449
1892 2487
1892 2591
1892 2615
1892 2628
1892 2669
1892 2885
1892 2891
1892 2952
1892 2957
1892 3058
1892 3497
1892 3521
1892 3544
1892 3825
1892 3867
1892 3874
1892 3994
1892 3995
1892 4191
1892 4425
1892 4465
1892 4561
1892 4572
1892 4633
1892 4705
1892 4773
1892 4794
1892 4899
1892 5136
1892 5380
1892 5410
1892 5695
1892 5707
1892 5726
1892 5763
1892 5834
1892 5929
1892 5966
1892 6069
1892 6184
1892 6248
1892 6381
1892 6421
1892 6689
1892 6751
1892 6933
1892 7243
1892 7299
1892 7383
1892 7467
1892 7533
1892 7587
1892 7615
1892 7636
1892 7683
1892 7726
1892 8004
1893 2042
1893 2234
1893 2314
1893 2408
1893 2540
1893 2555
1893 3984
1893 4146
1893 4977
1893 5026
1893 5234
1893 5454
1893 6129
1893 6381
1893 6498
1893 6683
1893 6802
1893 7100
1893 7556
1893 7727
1893 8255
1894 4255
1895 1925
1895 2031
1895 2119
1895 2310
1895 2407
1895 2644
1895 2858
1895 3153
1895 3174
1895 3280
1895 3431
1895 3533
1895 3750
1895 3920
1895 3980
1895 4115
1895 4145
1895 4150
1895 4445
1895 4950
1895 4958
1895 4977
1895 5053
1895 5095
1895 5674
1895 5814
1895 5832
1895 5933
1895 5951
1895 6053
1895 6111
1895 6271
1895 6326
1895 6381
1895 6540
1895 6563
1895 6572
1895 6686
1895 6724
1895 6839
1895 6866
1895 6881
1895 7003
1895 7063
1895 7115
1895 7192
1895 7332
1895 7372
1895 7391
1895 7448
1895 7637
1895 7738
1895 7850
1895 7991
1895 8125
1895 8205
1897 3950
1897 7276
1898 1898
1898 2083
1898 2369
1898 2378
1898 2436
1898 2598
1898 3746
1898 4259
1898 4374
1898 4539
1898 4773
1898 4793
1898 4957
1898 5050
1898 5265
1898 5291
1898 6587
1898 6705
1898 7236
1898 7398
1898 7880
1898 8067
1898 8070
1899 1899
1899 4399
1900 2391
1900 2543
1900 2558
1900 3026
1900 3356
1900 3485
1900 3653
1900 3669
1900 4064
1900 4351
1900 4385
1900 4473
1900 4723
1900 5056
1900 5110
1900 5154
1900 5249
1900 5309
1900 5366
1900 5697
1900 5785
1900 5802
1900 6110
1900 6158
1900 6162
1900 6194
1900 6304
1900 6793
1900 6912
1900 7015
1900 7214
1900 7520
1900 7562
1901 2980
1901 3256
1901 5969
1901 6870
1902 8013
1903 2182
1903 3280
1903 4108
1903 5051
1903 5248
1903 7427
1903 8157
1904 3153
1904 3592
1905 1939
1905 1963
1905 2093
1905 2095
1905 2110
1905 2217
1905 2367
1905 2375
1905 2395
1905 2590
1905 2623
1905 2687
1905 2706
1905 2725
1905 2825
1905 2881
1905 2910
1905 2970
1905 3033
1905 3050
1905 3485
1905 3528
1905 3544
1905 3575
1905 3724
1905 3726
1905 3778
1905 3872
1905 3873
1905 3905
1905 3914
1905 4053
1905 4101
1905 4187
1905 4267
1905 4368
1905 4399
1905 4409
1905 4471
1905 4630
1905 4654
1905 4720
1905 4739
1905 4804
1905 4921
1905 4992
1905 5012
1905 5015
1905 5046
1905 5110
1905 5155
1905 5198
1905 5219
1905 5232
1905 5422
1905 5519
1905 5573
1905 5612
1905 5638
1905 5711
1905 5802
1905 5914
1905 5953
1905 6011
1905 6034
1905 6082
1905 6110
1905 6170
1905 6208
1905 6254
1905 6291
1905 6355
1905 6375
1905 6383
1905 6388
1905 6406
1905 6485
1905 6507
1905 6591
1905 6719
1905 6770
1905 6827
1905 6887
1905 6918
1905 7012
1905 7029
1905 7036
1905 7054
1905 7091
1905 7141
1905 7158
1905 7174
1905 7189
1905 7201
1905 7203
1905 7232
1905 7268
1905 7274
1905 7281
1905 7286
1905 7300
1905 7319
1905 7358
1905 7400
1905 7406
1905 7520
1905 7563
1905 7589
1905 7952
1905 8031
1905 8080
1905 8089
1905 8262
1906 4573
1906 5956
1907 5200
1908 5510
1908 7620
1909 3517
1910 1998
1910 3089
1910 7034
1910 7346
1911 1994
1911 2002
1911 3066
1911 3999
1911 4017
1911 4287
1911 5542
1911 6359
1911 7340
1912 4093
1912 4491
1912 5099
1913 2876
1913 3890
1913 4363
1913 5006
1913 6390
1913 6801
1913 7165
1913 8141
1913 8225
1914 2141
1914 2312
1914 6903
1915 6047
1916 1916
1916 2378
1916 2383
1916 2594
1916 2958
1916 3111
1916 3265
1916 3364
1916 3658
1916 3678
1916 4191
1916 4641
1916 4654
1916 4706
1916 4734
1916 4770
1916 5071
1916 5211
1916 5346
1916 5391
1916 5420
1916 5835
1916 5906
1916 6372
1916 6625
1916 6791
1916 6874
1916 7072
1916 7167
1916 7188
1916 7190
1916 7321
1916 7381
1916 7596
1916 7597
1916 7857
1916 7870
1916 7897
1916 8068
1918 2408
1918 2540
1918 3331
1918 4148
1918 4445
1918 4464
1918 4939
1918 4977
1918 5352
1918 5546
1918 5614
1918 6183
1918 6506
1919 1992
1919 2976
1919 3024
1919 3028
1919 3108
1919 3219
1919 3485
1919 3575
1919 3706
1919 3726
1919 3863
1919 4187
1919 4720
1919 5638
1919 5747
1919 5785
1919 5802
1919 5953
1919 6158
1919 6651
1919 7012
1919 7352
1919 8089
1920 2001
1920 3029
1920 3087
1920 3912
1920 4279
1920 4294
1920 4296
1920 4437
1920 4578
1920 6158
1921 6477
1921 6576
1922 1925
1922 3293
1922 3904
1922 5164
1922 5877
1922 6248
1922 6580
1922 7246
1922 7868
1923 3739
1923 4566
1923 7429
1924 4752
1924 6696
1925 2234
1925 2296
1925 2408
1925 2473
1925 2540
1925 2555
1925 2916
1925 3060
1925 3178
1925 3268
1925 3662
1925 3918
1925 3984
1925 4060
1925 4148
1925 4348
1925 5096
1925 5121
1925 5136
1925 5234
1925 5245
1925 5261
1925 5507
1925 5563
1925 5623
1925 5628
1925 5674
1925 5725
1925 5880
1925 6109
1925 6218
1925 6370
1925 6400
1925 6446
1925 6498
1925 6506
1925 6521
1925 6592
1925 6646
1925 6680
1925 6683
1925 6799
1925 6802
1925 6809
1925 7048
1925 7332
1925 7361
1925 7528
1925 7727
1925 7747
1925 7985
1926 1978
1926 2390
1926 3456
1926 4950
1926 5164
1926 8218
1928 2296
1928 2310
1928 2408
1928 2473
1928 2555
1928 3060
1928 3074
1928 3167
1928 3269
1928 3510
1928 3594
1928 3651
1928 3652
1928 3918
1928 4148
1928 4274
1928 4348
1928 4439
1928 4590
1928 4667
1928 4715
1928 4977
1928 5066
1928 5136
1928 5176
1928 5261
1928 5297
1928 5468
1928 5507
1928 5563
1928 5622
1928 5692
1928 5880
1928 6330
1928 6506
1928 6954
1928 7470
1928 7492
1928 7985
1930 2181
1930 2498
1930 2594
1930 2767
1930 2911
1930 3317
1930 3684
1930 3740
1930 3826
1930 3895
1930 4040
1930 4108
1930 4230
1930 4356
1930 4416
1930 4543
1930 4679
1930 4770
1930 4834
1930 5265
1930 5558
1930 5571
1930 5647
1930 6145
1930 6625
1930 6654
1930 6705
1930 6735
1930 6883
1930 6928
1930 6938
1930 6939
1930 6946
1930 6951
1930 7011
1930 7188
1930 7265
1930 7460
1930 7491
1930 7687
1930 7689
1930 7691
1930 7759
1930 7819
1930 7833
1930 7998
1930 8003
1930 8114
1931 2372
1931 2667
1931 4539
1931 4734
1931 5112
1931 6147
1931 6372
1931 6685
1931 6705
1931 6851
1931 7034
1931 7190
1931 8139
1931 8156
1931 8212
1932 4000
1933 3189
1933 4291
1935 4654
1936 2083
1936 3736
1937 3391
1939 2660
1939 2736
1939 2957
1939 3069
1939 4636
1939 4654
1939 5687
1939 6672
1939 7734
1940 4519
1941 2406
1941 2702
1941 2708
1941 2862
1941 4007
1941 4399
1941 4734
1941 5816
1941 6067
1941 6162
1941 6759
1942 2795
1942 4968
1942 5031
1942 6248
1942 7767
1942 8053
1943 6181
1943 8043
1944 2176
1944 2263
1944 2382
1944 4151
1944 4610
1944 4656
1944 4899
1944 7281
1945 5824
1946 2935
1946 3047
1946 3503
1946 3847
1946 3952
1946 6065
1946 6828
1946 7394
1946 7564
1946 7601
1947 6493
1947 8112
1948 3130
1949 2073
1949 3373
1949 3452
1949 3693
1949 3959
1949 4093
1949 4399
1949 4586
1949 5342
1949 5422
1949 6383
1949 7208
1949 7652
1950 2000
1950 2592
1950 3089
1950 3132
1950 3373
1950 5391
1950 6625
1950 7034
1950 7124
1951 4804
1951 7012
1952 2042
1952 2133
1952 2296
1952 2551
1952 2981
1952 3092
1952 3280
1952 3580
1952 3818
1952 4450
1952 4631
1952 4977
1952 5026
1952 5192
1952 5197
1952 5674
1952 6111
1952 7800
1954 2193
1955 2266
1955 4106
1955 6006
1956 4780
1957 2971
1957 6048
1958 2406
1958 2742
1958 5308
1959 2296
1959 3309
1959 3475
1959 3580
1959 3962
1959 4164
1959 4304
1959 4399
1959 4459
1959 4665
1959 4792
1959 5026
1959 5549
1959 5674
1959 5678
1959 6111
1959 6240
1959 6723
1959 7045
1959 7124
1959 7689
1960 7394
1962 2598
1962 3206
1962 4036
1962 4366
1962 4539
1962 7381
1962 7839
1963 2291
1963 2294
1963 2542
1963 2598
1963 2817
1963 2862
1963 2876
1963 2957
1963 3373
1963 3463
1963 3729
1963 3944
1963 4191
1963 4346
1963 4586
1963 4654
1963 5348
1963 5589
1963 5874
1963 6120
1963 6244
1963 6339
1963 6383
1963 6517
1963 6622
1963 6694
1963 6705
1963 6801
1963 6939
1963 7011
1963 7015
1963 7276
1963 7360
1963 7473
1963 7554
1963 7587
1963 7592
1963 7788
1963 7822
1963 7939
1963 7976
1963 8109
1963 8162
1963 8221
1964 2292
1964 2767
1965 5291
1965 7587
1966 2176
1966 3135
1966 3530
1966 4586
1966 5682
1966 6150
1966 6290
1966 7716
1967 6939
1968 6737
1969 2981
1970 2262
1970 3986
1970 7047
1971 7481
1973 5632
1973 7346
1973 7605
1973 7759
1975 2182
1975 2410
1975 2498
1975 2529
1975 2598
1975 3574
1975 4397
1975 4811
1975 5183
1975 5370
1975 6000
1975 6383
1975 6735
1975 6852
1975 6941
1975 6951
1975 6967
1975 7034
1975 7265
1975 7276
1976 1996
1976 2181
1976 2361
1976 3463
1976 3530
1976 3774
1976 4525
1976 4804
1976 4869
1976 5214
1976 5294
1976 5559
1976 5629
1976 5757
1976 6160
1976 6573
1976 6587
1976 6938
1976 7072
1976 7740
1977 2109
1977 2133
1977 2314
1977 2408
1977 2540
1977 2555
1977 2916
1977 3280
1977 3662
1977 3818
1977 3925
1977 3980
1977 4439
1977 4511
1977 4516
1977 4570
1977 4875
1977 4977
1977 5192
1977 5454
1977 5507
1977 5674
1977 6111
1977 6802
1977 7288
1977 7383
1977 7801
1978 2052
1978 2094
1978 2296
1978 2408
1978 2540
1978 2551
1978 3039
1978 3092
1978 3175
1978 3510
1978 3566
1978 3651
1978 3818
1978 4056
1978 4164
1978 4301
1978 4348
1978 4631
1978 4715
1978 4722
1978 4840
1978 4977
1978 5009
1978 5020
1978 5067
1978 5087
1978 5121
1978 5271
1978 5338
1978 5507
1978 5622
1978 5674
1978 5737
1978 5880
1978 5933
1978 6111
1978 6211
1978 6476
1978 6480
1978 6498
1978 6506
1978 6560
1978 6563
1978 6683
1978 6732
1978 6752
1978 6799
1978 6809
1978 7025
1978 7105
1978 7144
1978 7506
1978 7543
1978 7569
1978 7727
1978 7751
1978 8113
1979 3054
1979 5194
1980 7276
1981 2053
1981 2372
1981 2446
1981 2586
1981 2594
1981 3126
1981 3265
1981 3292
1981 3317
1981 3359
1981 3684
1981 3793
1981 3950
1981 4022
1981 4166
1981 4356
1981 4373
1981 4538
1981 4543
1981 4770
1981 4822
1981 4834
1981 4852
1981 4888
1981 5212
1981 5294
1981 5326
1981 5753
1981 5770
1981 5784
1981 5835
1981 5885
1981 6024
1981 6264
1981 6393
1981 6495
1981 6573
1981 6587
1981 6735
1981 6874
1981 6930
1981 6937
1981 6939
1981 6941
1981 6966
1981 6967
1981 6976
1981 6998
1981 7011
1981 7080
1981 7081
1981 7088
1981 7167
1981 7171
1981 7188
1981 7235
1981 7264
1981 7265
1981 7276
1981 7387
1981 7398
1981 7403
1981 7473
1981 7491
1981 7516
1981 7570
1981 7591
1981 7625
1981 7631
1981 7632
1981 7649
1981 7680
1981 7683
1981 7684
1981 7687
1981 7688
1981 7689
1981 7690
1981 7691
1981 7719
1981 7720
1981 7759
1981 7794
1981 7817
1981 7819
1981 7822
1981 7824
1981 7839
1981 7927
1981 7934
1981 7935
1981 7941
1981 7981
1981 7998
1981 8047
1981 8071
1981 8109
1981 8162
1981 8170
1981 8197
1981 8245
1982 2250
1982 3988
1982 4141
1982 7292
1982 8103
1983 5773
1984 4399
1984 7455
1986 2432
1987 2869
1987 6946
1988 2181
1988 3019
1988 3270
1988 3317
1988 3499
1988 3507
1988 3969
1988 4282
1988 4396
1988 4487
1988 4623
1988 4778
1988 5116
1988 5212
1988 6821
1988 7044
1988 7235
1988 7264
1988 7680
1988 7788
1988 8234
1989 2551
1989 4441
1989 4445
1989 4689
1989 6111
1989 6431
1989 6496
1989 8038
1989 8066
1990 2091
1990 2101
1990 2160
1990 2168
1990 2195
1990 2312
1990 2424
1990 2430
1990 2543
1990 2870
1990 3105
1990 3117
1990 3119
1990 3156
1990 3233
1990 3277
1990 3467
1990 3519
1990 3544
1990 3691
1990 3712
1990 3786
1990 3826
1990 3930
1990 4007
1990 4294
1990 4347
1990 4460
1990 4533
1990 4582
1990 4586
1990 4706
1990 4804
1990 4824
1990 4997
1990 5098
1990 5116
1990 5223
1990 5225
1990 5298
1990 5315
1990 5423
1990 5519
1990 5683
1990 5693
1990 5709
1990 5845
1990 5854
1990 5860
1990 5874
1990 5979
1990 6217
1990 6267
1990 6328
1990 6477
1990 6836
1990 6865
1990 6998
1990 7058
1990 7085
1990 7281
1990 7292
1990 7385
1990 7474
1990 7491
1990 7960
1990 8039
1990 8123
1990 8171
1990 8264
1991 2346
1991 3627
1992 2261
1992 2336
1992 2576
1992 3281
1992 3684
1992 3826
1992 3895
1992 4129
1992 4305
1992 4338
1992 4354
1992 4356
1992 4629
1992 4773
1992 5098
1992 5212
1992 5218
1992 5265
1992 5859
1992 5885
1992 6573
1992 6587
1992 7011
1992 7021
1992 7047
1992 7080
1992 7190
1992 7191
1992 7276
1992 7398
1992 7491
1992 7652
1992 7691
1992 7777
1992 7824
1992 7980
1992 8109
1992 8162
1993 7731
1994 5273
1994 5291
1994 7360
1995 7276
1996 2406
1996 2490
1996 3281
1996 3446
1996 4131
1996 7023
1996 7963
1997 6371
1998 2029
1998 2543
1998 2787
1998 2983
1998 3847
1998 4349
1998 4500
1998 5035
1998 5885
1998 6570
1998 6930
1998 7011
1998 7080
1998 7088
1998 7124
1998 7292
1998 7442
1998 7817
1998 7824
1998 8109
1998 8153
1998 8162
1999 2001
1999 3693
1999 5914
2000 2480
2000 2515
2000 2571
2000 2700
2000 2780
2000 3058
2000 3265
2000 3603
2000 3629
2000 3691
2000 3740
2000 3768
2000 4108
2000 4399
2000 4509
2000 4578
2000 4914
2000 4929
2000 5016
2000 5095
2000 5134
2000 5356
2000 5647
2000 6096
2000 6302
2000 6428
2000 6443
2000 6625
2000 6739
2000 6791
2000 6988
2000 7034
2000 7453
2000 7833
2001 2086
2001 2264
2001 2315
2001 2413
2001 2414
2001 2445
2001 2598
2001 2627
2001 2693
2001 2695
2001 2708
2001 2830
2001 2869
2001 2930
2001 2942
2001 3247
2001 3301
2001 3465
2001 3530
2001 3535
2001 3582
2001 3622
2001 3629
2001 3695
2001 3696
2001 3931
2001 4032
2001 4061
2001 4068
2001 4159
2001 4229
2001 4253
2001 4291
2001 4300
2001 4317
2001 4509
2001 4523
2001 4585
2001 4642
2001 4823
2001 4873
2001 4902
2001 5107
2001 5119
2001 5130
2001 5195
2001 5218
2001 5434
2001 5521
2001 5738
2001 5849
2001 5896
2001 5969
2001 6023
2001 6026
2001 6062
2001 6192
2001 6213
2001 6332
2001 6378
2001 6415
2001 6666
2001 7005
2001 7117
2001 7458
2001 7463
2001 7467
2001 7515
2001 7570
2001 7677
2001 7775
2001 7840
2001 7878
2001 7914
2001 7976
2001 8217
2003 5182
2004 7034
2005 2274
2005 2415
2005 2981
2005 5171
2005 5956
2005 6211
2005 6259
2005 6686
2005 7383
2007 3071
2007 3309
2007 3909
2007 7656
2008 4578
2009 3644
2009 4237
2009 4487
2009 5004
2009 5562
2009 6067
2009 7561
2009 8221
2010 3373
2010 4294
2010 4457
2010 5258
2011 6615
2011 6621
2012 3548
2013 2954
2013 6407
2014 2020
2014 2505
2014 3530
2014 3757
2014 4751
2014 5649
2014 5874
2016 2869
2016 4991
2016 7788
2018 2999
2018 3246
2019 2227
2019 2391
2019 2592
2019 3254
2019 5329
2019 6007
2019 6833
2020 2554
2020 2598
2020 2930
2020 3977
2020 4178
2020 4945
2020 5763
2020 6096
2020 6353
2020 6482
2020 6489
2021 2293
2021 2540
2021 4330
2021 6025
2022 2378
2022 6160
2023 7262
2023 7410
2024 2024
2024 3871
2024 4644
2024 6833
2024 7709
2024 8123
2024 8259
2025 6359
2026 3452
2026 5249
2027 7190
2027 7709
2028 3543
2028 4399
2028 6325
2028 7034
2028 7346
2028 7393
2028 7394
2031 2408
2031 2555
2031 4439
2031 5396
2031 6111
2031 6218
2033 2042
2033 2176
2033 4439
2033 4715
2033 5546
2033 5726
2033 6802
2034 2034
2034 2509
2034 2876
2034 3309
2034 3826
2034 3987
2034 4331
2034 4655
2034 4692
2034 5108
2034 6801
2034 7894
2034 8141
2035 6270
2036 6759
2037 4348
2037 5020
2037 5680
2037 6248
2037 7621
2038 2038
2038 2057
2038 4399
2039 3216
2040 5130
2041 5279
2042 2293
2042 2644
2042 3025
2042 3388
2042 3566
2042 4080
2042 4398
2042 4622
2042 5204
2042 5444
2042 5478
2042 5877
2042 6381
2042 6563
2042 7090
2042 7181
2042 7676
2042 7890
2043 2043
2043 2110
2043 3778
2043 3859
2043 3873
2043 4393
2043 4474
2043 4924
2043 5617
2043 5654
2043 5931
2044 4094
2044 5291
2044 6979
2044 7275
2044 7281
2044 7650
2044 7824
2045 5048
2045 5342
2046 7212
2047 2047
2048 7125
2048 7522
2051 2430
2051 2542
2051 2832
2051 2862
2051 3117
2051 3348
2051 3355
2051 3523
2051 3866
2051 4661
2051 4773
2051 5372
2051 5709
2051 6050
2051 7172
2051 7190
2051 7217
2051 7292
2051 7413
2051 7775
2052 3104
2053 2059
2053 2148
2053 2759
2053 2862
2053 3281
2053 3446
2053 3924
2053 4793
2053 5801
2053 5953
2053 6538
2053 7276
2053 7491
2054 4488
2055 3410
2055 3775
2055 6080
2056 3744
2057 2057
2057 3001
2058 5648
2059 2356
2059 2378
2059 2406
2059 2444
2059 2542
2059 2557
2059 2759
2059 2862
2059 2922
2059 3118
2059 3446
2059 3644
2059 3679
2059 3700
2059 3924
2059 4487
2059 4548
2059 4586
2059 4706
2059 5004
2059 5050
2059 5146
2059 5216
2059 5291
2059 5661
2059 5758
2059 5762
2059 6141
2059 6654
2059 6666
2059 6938
2059 7161
2059 7264
2059 7989
2060 2060
2060 2817
2060 3108
2060 3309
2060 3468
2060 4268
2060 6335
2060 6408
2060 6991
2060 7087
2060 8072
2060 8225
2061 2061
2061 2346
2061 3407
2062 4154
2063 2063
2064 4572
2065 3849
2065 7217
2066 6636
2067 4399
2068 3058
2068 3083
2068 3104
2068 3153
2068 3904
2068 4028
2068 4827
2068 5026
2068 5800
2068 5858
2068 6739
2068 6843
2069 3391
2069 5937
2070 2987
2071 2101
2071 2163
2071 2241
2071 2557
2071 2759
2071 2862
2071 2885
2071 2957
2071 2970
2071 3107
2071 3217
2071 3287
2071 3355
2071 3392
2071 3465
2071 3486
2071 3507
2071 3530
2071 4127
2071 4187
2071 4623
2071 4661
2071 4696
2071 5004
2071 5212
2071 5262
2071 5265
2071 5291
2071 5410
2071 5612
2071 5709
2071 5748
2071 5790
2071 5946
2071 6280
2071 6435
2071 6477
2071 6763
2071 6859
2071 7083
2071 7160
2071 7172
2071 7212
2071 7217
2071 7243
2071 7283
2071 7305
2071 7309
2071 7562
2071 7564
2071 7587
2071 7790
2071 7938
2071 8099
2071 8152
2072 2753
2072 2966
2072 3352
2072 3486
2072 4064
2072 4399
2072 4625
2072 4639
2072 4680
2072 4951
2072 5110
2072 5243
2072 5586
2072 6161
2072 6535
2072 7069
2072 7395
2072 7677
2073 2115
2073 2214
2073 2266
2073 2487
2073 2738
2073 2746
2073 2782
2073 2809
2073 2881
2073 3107
2073 3118
2073 3141
2073 3277
2073 3355
2073 3364
2073 3373
2073 3392
2073 3467
2073 3507
2073 3523
2073 3530
2073 3679
2073 3847
2073 3902
2073 3924
2073 4045
2073 4127
2073 4182
2073 4351
2073 4360
2073 4487
2073 4533
2073 4539
2073 4623
2073 4661
2073 4773
2073 4778
2073 4793
2073 4877
2073 4909
2073 5050
2073 5218
2073 5265
2073 5308
2073 5342
2073 5365
2073 5386
2073 5408
2073 5562
2073 5661
2073 5689
2073 5694
2073 5709
2073 5748
2073 5946
2073 5997
2073 6110
2073 6209
2073 6287
2073 6393
2073 6401
2073 6464
2073 6505
2073 6517
2073 6632
2073 6685
2073 6763
2073 6812
2073 6836
2073 6879
2073 6887
2073 6925
2073 7161
2073 7172
2073 7212
2073 7252
2073 7258
2073 7264
2073 7305
2073 7360
2073 7425
2073 7477
2073 7501
2073 7562
2073 7648
2073 7775
2073 7840
2073 7871
2073 7926
2073 7935
2073 8139
2073 8151
2073 8220
2074 2912
2074 3206
2074 4633
2074 6041
2075 4399
2076 2104
2076 5168
2076 5344
2076 5708
2076 5811
2076 6133
2076 6805
2076 7124
2076 7564
2077 4723
2077 6090
2077 7155
2078 6208
2078 6756
2079 8082
2081 2081
2083 2083
2083 2675
2083 2806
2083 3309
2083 3760
2083 3847
2083 3864
2083 4399
2083 4654
2083 4734
2083 5048
2083 5302
2083 5802
2083 5955
2083 6011
2083 6048
2083 6107
2083 6208
2083 6626
2083 7245
2083 7263
2083 7558
2083 7625
2083 7633
2083 7951
2083 8123
2084 2093
2084 2804
2084 2924
2084 3530
2084 5198
2084 5729
2084 6082
2084 6110
2084 6406
2084 6651
2084 7164
2084 8089
2085 2729
2086 2101
2086 2598
2086 2805
2086 2856
2086 2862
2086 2957
2086 3897
2086 3944
2086 4639
2086 4773
2086 5124
2086 5291
2086 5408
2086 5660
2086 5661
2086 5749
2086 5980
2086 5997
2086 6632
2086 6651
2086 6716
2086 6915
2086 6925
2086 7190
2086 7191
2086 7360
2086 7840
2087 2176
2087 4773
2087 6535
2087 7587
2088 2558
2088 3965
2088 5171
2088 7425
2089 6184
2089 7011
2089 7276
2089 7824
2090 2090
2091 3281
2091 3309
2091 3407
2091 3486
2091 3644
2091 3891
2091 4131
2091 5572
2091 5914
2091 6633
2091 7217
2091 7321
2091 7963
2092 4143
2092 5383
2092 5622
2092 5951
2092 6866
2093 2660
2093 2767
2093 4101
2093 4586
2093 4607
2093 4633
2093 5291
2093 5605
2093 6226
2093 6390
2093 6632
2093 7140
2093 7574
2093 8221
2094 2257
2094 2806
2094 3114
2094 3318
2094 3566
2094 3904
2094 4085
2094 4146
2094 5680
2094 5738
2094 6739
2094 6866
2094 7122
2094 7733
2094 7767
2095 6226
2096 2687
2096 3157
2096 3944
2097 2136
2097 2296
2097 2407
2097 2495
2097 2551
2097 3058
2097 3060
2097 3133
2097 3293
2097 3616
2097 3810
2097 3984
2097 4056
2097 4370
2097 4574
2097 5507
2097 6592
2097 7041
2097 7122
2097 7800
2097 8175
2099 2101
2099 2406
2099 2769
2099 2982
2099 3219
2099 3634
2099 4519
2099 4623
2099 4778
2099 5050
2099 5262
2099 5548
2099 5777
2099 5977
2099 5996
2099 6114
2099 6141
2099 6158
2099 6267
2099 6270
2099 6354
2099 6384
2099 6401
2099 6706
2099 7047
2099 7154
2099 7214
2099 7483
2099 7782
2099 7831
2100 6218
2101 2195
2101 2230
2101 2367
2101 2404
2101 2406
2101 2714
2101 2759
2101 2869
2101 2970
2101 3054
2101 3249
2101 3281
2101 3288
2101 3859
2101 3924
2101 4397
2101 4399
2101 4661
2101 4793
2101 4804
2101 4807
2101 4833
2101 5015
2101 5046
2101 5110
2101 5168
2101 5216
2101 5328
2101 5764
2101 5802
2101 5854
2101 5914
2101 5995
2101 6145
2101 6378
2101 6383
2101 6621
2101 7197
2101 7281
2101 7704
2101 7706
2101 7937
2101 8168
2102 3393
2103 3986
2105 2133
2105 2314
2105 2407
2105 2408
2105 2425
2105 2540
2105 3580
2105 3662
2105 3733
2105 3810
2105 3818
2105 3825
2105 3925
2105 3984
2105 3994
2105 4977
2105 5066
2105 5067
2105 5233
2105 5234
2105 5352
2105 5454
2105 5507
2105 5546
2105 5788
2105 6111
2105 6840
2105 7506
2105 7727
2105 7747
2105 8175
2106 2863
2106 3679
2106 3950
2106 5946
2106 6573
2106 7276
2106 7632
2107 5253
2109 2847
2109 3758
2109 4485
2109 5797
2109 7391
2110 4655
2110 6206
2110 7615
2112 2481
2113 4876
2113 6184
2113 6379
2114 2121
2114 2178
2114 2194
2114 2759
2114 2828
2114 2957
2114 3116
2114 3233
2114 3355
2114 3944
2114 4014
2114 4433
2114 4586
2114 4863
2114 5062
2114 5291
2114 5329
2114 5386
2114 5445
2114 5661
2114 5748
2114 5749
2114 5761
2114 5762
2114 5965
2114 5997
2114 6596
2114 6656
2114 6716
2114 6915
2114 7052
2114 7212
2114 7275
2114 7473
2114 7562
2114 7770
2114 7871
2114 8020
2114 8099
2115 5329
2116 3455
2116 3860
2117 2901
2117 3254
2118 2763
2118 5875
2118 6889
2119 2234
2119 2330
2119 2540
2119 3280
2119 3808
2119 3818
2119 3825
2119 3925
2119 4146
2119 4164
2119 4511
2119 4667
2119 4715
2119 5215
2119 5233
2119 5261
2119 5552
2119 6381
2119 6414
2119 7727
2119 7801
2120 3007
2120 5007
2120 7034
2120 7346
2121 2171
2121 2194
2121 2208
2121 2227
2121 2387
2121 2406
2121 2729
2121 2756
2121 3089
2121 3115
2121 3535
2121 3602
2121 3738
2121 3775
2121 3860
2121 3952
2121 4005
2121 4103
2121 4142
2121 4227
2121 4298
2121 4625
2121 4643
2121 4754
2121 4926
2121 5019
2121 5046
2121 5401
2121 5488
2121 5812
2121 5830
2121 5862
2121 5882
2121 6168
2121 6309
2121 6322
2121 6394
2121 6638
2121 6875
2121 6928
2121 7177
2121 7407
2121 7841
2121 7854
2121 7876
2121 8025
2121 8045
2121 8214
2121 8236
2121 8240
2121 8255
2122 3414
2124 5171
2125 2716
2126 3944
2126 4101
2126 6694
2126 6801
2126 7373
2126 7788
2127 2127
2127 4519
2127 6833
2127 6842
2128 6101
2129 4654
2130 4621
2131 2661
2131 5525
2132 3373
2132 3653
2133 2293
2133 2379
2133 2390
2133 2415
2133 2441
2133 2500
2133 2611
2133 2616
2133 2644
2133 2904
2133 2995
2133 3008
2133 3015
2133 3102
2133 3318
2133 3427
2133 3438
2133 3532
2133 3751
2133 3803
2133 4085
2133 4125
2133 4150
2133 4249
2133 4422
2133 4599
2133 4714
2133 5026
2133 5171
2133 5266
2133 5354
2133 5498
2133 5601
2133 5610
2133 5622
2133 5632
2133 5641
2133 5716
2133 5726
2133 5773
2133 5800
2133 5831
2133 5832
2133 6053
2133 6140
2133 6163
2133 6299
2133 6496
2133 6574
2133 6739
2133 6866
2133 6867
2133 6907
2133 7003
2133 7041
2133 7181
2133 7192
2133 7246
2133 7332
2133 7408
2133 7412
2133 7456
2133 7481
2133 7637
2133 7698
2133 7705
2133 7736
2133 7800
2133 7991
2133 8119
2133 8124
2133 8216
2135 6779
2136 3058
2136 3272
2136 3603
2136 3758
2136 3904
2136 3913
2136 4150
2136 4221
2136 4929
2136 5489
2136 5680
2136 6163
2136 6248
2136 6389
2136 6432
2136 6843
2136 7181
2136 7412
2136 7621
2136 8062
2137 4599
2138 4305
2138 5342
2138 7268
2138 7918
2140 2140
2140 2598
2140 3544
2140 3849
2140 6374
2141 3831
2141 5061
2141 7047
2142 3826
2142 4008
2142 7064
2143 5842
2144 3965
2144 4235
2145 2598
2145 4667
2145 6283
2146 2690
2146 3309
2146 3486
2148 2453
2148 3452
2148 5027
2148 5997
2149 3318
2149 3596
2149 4994
2149 5627
2149 5680
2149 6857
2149 7272
2149 8116
2151 6791
2152 7091
2153 5138
2154 3885
2154 7217
2155 4586
2155 6939
2155 7276
2156 7346
2156 7393
2157 5036
2157 5130
2157 8023
2158 4087
2158 5127
2158 5539
2158 5612
2158 6267
2158 7047
2159 2436
2159 2547
2159 2598
2159 2604
2159 2680
2159 4198
2159 4966
2159 5244
2159 5763
2159 6069
2159 6836
2159 7112
2159 7234
2159 7237
2159 7282
2159 7286
2159 7593
2160 6634
2160 7541
2161 5269
2162 2458
2162 3127
2162 5036
2163 2869
2163 3778
2164 5425
2165 2335
2166 7034
2167 3507
2167 5449
2168 2168
2168 4778
2168 6352
2169 2628
2169 2989
2169 4108
2169 4114
2169 4329
2169 4537
2169 5647
2169 6408
2169 7034
2169 7467
2169 7798
2170 3866
2170 5269
2170 5336
2170 6483
2170 7484
2170 7775
2171 3944
2171 4287
2171 4774
2173 3068
2173 3309
2173 4856
2173 6651
2173 6711
2173 6887
2173 7121
2173 7756
2173 7928
2174 2543
2174 6632
2174 7178
2175 6073
2175 6420
2176 2176
2176 2540
2176 3028
2176 3089
2176 3260
2176 3309
2176 3373
2176 3474
2176 3995
2176 4030
2176 4399
2176 4580
2176 5046
2176 5894
2176 6208
2176 7034
2176 8005
2177 3883
2178 2217
2178 2876
2178 4199
2178 4397
2178 4654
2178 4907
2178 5567
2178 6694
2178 6711
2178 7788
2178 8250
2179 2189
2179 2266
2179 2320
2179 2383
2179 2446
2179 2576
2179 2598
2179 2660
2179 2823
2179 2862
2179 2944
2179 2966
2179 3019
2179 3022
2179 3355
2179 3486
2179 3618
2179 3826
2179 3890
2179 3902
2179 3924
2179 3977
2179 4087
2179 4354
2179 4363
2179 4385
2179 4468
2179 4640
2179 4661
2179 5004
2179 5108
2179 5244
2179 5308
2179 5413
2179 5505
2179 5559
2179 5658
2179 5661
2179 5709
2179 5869
2179 5946
2179 5997
2179 6023
2179 6067
2179 6069
2179 6305
2179 6622
2179 6651
2179 6656
2179 6748
2179 7011
2179 7178
2179 7190
2179 7191
2179 7217
2179 7398
2179 7406
2179 7437
2179 7452
2179 7587
2179 7592
2179 7788
2179 7871
2179 7935
2179 8234
2179 8245
2181 4143
2181 4641
2181 6096
2181 6145
2181 7276
2181 7478
2182 2346
2182 2609
2182 2708
2182 2751
2182 3684
2182 4543
2182 4822
2182 5416
2182 5753
2182 6024
2182 6970
2182 6976
2182 7011
2182 7171
2182 7276
2182 7439
2182 7491
2182 7518
2182 7570
2182 7591
2182 7632
2182 7649
2182 7683
2182 7690
2182 7691
2182 7759
2182 7794
2182 7884
2182 7927
2182 7941
2182 8003
2182 8047
2183 2830
2183 5175
2184 2890
2184 3107
2184 3826
2184 5661
2184 6672
2184 7011
2184 7212
2184 7627
2184 7824
2184 8012
2184 8151
2185 4397
2186 7586
2187 3118
2189 2266
2189 2378
2189 2406
2189 2481
2189 2598
2189 2742
2189 2869
2189 3022
2189 3107
2189 3253
2189 3352
2189 3497
2189 3537
2189 3592
2189 4093
2189 4399
2189 4477
2189 4533
2189 4578
2189 4586
2189 4667
2189 5237
2189 5291
2189 5408
2189 5566
2189 5749
2189 5764
2189 5802
2189 5914
2189 6162
2189 6194
2189 6793
2189 6853
2189 7015
2189 7072
2189 7079
2189 7091
2189 7292
2189 7734
2189 7840
2190 2543
2190 3886
2190 5762
2190 7168
2190 7360
2191 3468
2191 5291
2192 7208
2193 3976
2194 2835
2194 2890
2194 3287
2194 3634
2194 4639
2194 7707
2195 2312
2195 2598
2195 2599
2195 2604
2195 3118
2195 3166
2195 3397
2195 3557
2195 3614
2195 3644
2195 3691
2195 3880
2195 3972
2195 4237
2195 4360
2195 4874
2195 5015
2195 5397
2195 5589
2195 5869
2195 5874
2195 5990
2195 6287
2195 6915
2195 7047
2195 7360
2195 7554
2195 7592
2195 8105
2196 2416
2196 4399
2196 5729
2196 5874
2196 5953
2197 4893
2198 4773
2198 6842
2198 7080
2199 2378
2199 2542
2199 2687
2199 3325
2199 3774
2199 3826
2199 3979
2199 7292
2200 2540
2200 2551
2200 3015
2200 3279
2200 3280
2200 3451
2200 3747
2200 3925
2200 3937
2200 3980
2200 4164
2200 4511
2200 5026
2200 5197
2200 5454
2200 5674
2200 5678
2200 5716
2200 5814
2200 6053
2200 6111
2200 6155
2200 7100
2200 7529
2200 8124
2201 3826
2202 6053
2203 2391
2203 2609
2203 7903
2204 2687
2204 7465
2205 2206
2205 4839
2205 7507
2206 5253
2206 6716
2206 6874
2206 7396
2207 3202
2208 2460
2208 3309
2208 4399
2208 5906
2208 7281
2209 4291
2209 5875
2209 6889
2209 7731
2210 4586
2210 6681
2211 3206
2211 5885
2211 7011
2211 7016
2211 7080
2211 7276
2211 7292
2211 7824
2211 7999
2211 8109
2211 8162
2212 4586
2212 5098
2213 2420
2213 6401
2214 2406
2214 2636
2214 3638
2214 3930
2214 4291
2214 4640
2214 4723
2214 4804
2214 5012
2214 5373
2214 5764
2214 6383
2214 7011
2214 7042
2214 7276
2214 7360
2214 7498
2214 8003
2215 3952
2215 7610
2216 3930
2216 5761
2216 5762
2217 2237
2217 2593
2217 2598
2217 2660
2217 2862
2217 2957
2217 3206
2217 3355
2217 3957
2217 3991
2217 4533
2217 4586
2217 4793
2217 4869
2217 5291
2217 5342
2217 5408
2217 5472
2217 5980
2217 6067
2217 6287
2217 6339
2217 6517
2217 6535
2217 6779
2217 6816
2217 6993
2217 7011
2217 7015
2217 7042
2217 7080
2217 7191
2217 7276
2217 7292
2217 7360
2217 7527
2217 7554
2217 7587
2217 7691
2217 7840
2217 8051
2218 2623
2219 2859
2219 3059
2219 3132
2219 3209
2219 3528
2219 3829
2219 4018
2219 4066
2219 4093
2219 4641
2219 4736
2219 4991
2219 5253
2219 5346
2219 5383
2219 5420
2219 5517
2219 5566
2219 5998
2219 6380
2219 6449
2219 7625
2220 5291
2224 6111
2225 3053
2226 4253
2226 5862
2226 5932
2227 2376
2227 2384
2227 2660
2227 2759
2227 2923
2227 3125
2227 3892
2227 4220
2227 4386
2227 4654
2227 4721
2227 5946
2227 6023
2227 6106
2227 6575
2227 6984
2227 7281
2227 7421
2227 7522
2227 7607
2227 7782
2228 3475
2228 4158
2229 2532
2229 2867
2229 2957
2229 3216
2229 3497
2229 3894
2229 3935
2229 5065
2229 5593
2229 5762
2229 7360
2229 7691
2229 7855
2229 7898
2230 3384
2230 5748
2230 6577
2230 7029
2230 8196
2232 8265
2233 4412
2234 2318
2234 2681
2234 2715
2234 2904
2234 3104
2234 3293
2234 3393
2234 3438
2234 3491
2234 4115
2234 4249
2234 4398
2234 4485
2234 4686
2234 4714
2234 4929
2234 5321
2234 5498
2234 5549
2234 5601
2234 5646
2234 5771
2234 5773
2234 6022
2234 6054
2234 6268
2234 6299
2234 7090
2234 7122
2234 7181
2234 7224
2234 7290
2234 7376
2234 7460
2234 7553
2234 7646
2234 8119
2235 6874
2236 4440
2237 2718
2237 2754
2237 2977
2237 3059
2237 3147
2237 3325
2237 3549
2237 3858
2237 3873
2237 4368
2237 4469
2237 4510
2237 4556
2237 4741
2237 5997
2237 6347
2237 6800
2237 7117
2237 7281
2237 7700
2237 7732
2237 7784
2237 8031
2237 8045
2238 4758
2238 5090
2239 6979
2240 2337
2240 4036
2241 2497
2241 2598
2241 3107
2241 3233
2241 3373
2241 5291
2241 5762
2241 7190
2242 5914
2242 7610
2244 3743
2244 5119
2244 5130
2246 7112
2246 7190
2248 3578
2248 6001
2249 2845
2249 4909
2249 5965
2250 2250
2250 2424
2250 2444
2250 2515
2250 2698
2250 2701
2250 2773
2250 2938
2250 3119
2250 3467
2250 3644
2250 3826
2250 4368
2250 4399
2250 4498
2250 4594
2250 4623
2250 4880
2250 4962
2250 5046
2250 5484
2250 5691
2250 5729
2250 5745
2250 5802
2250 6266
2250 6497
2250 6713
2250 6981
2250 7190
2250 7281
2250 7963
2250 8188
2250 8260
2252 4927
2253 2266
2254 7346
2255 6042
2256 2378
2256 8013
2257 2314
2257 2407
2257 2408
2257 2777
2257 3280
2257 3818
2257 3925
2257 3980
2257 3981
2257 4164
2257 4782
2257 4977
2257 5066
2257 5121
2257 5233
2257 5396
2257 5454
2257 5570
2257 5622
2257 5674
2257 5726
2257 5839
2257 6002
2257 6785
2257 7105
2257 7144
2257 7332
2257 7764
2257 7957
2258 2866
2259 3092
2259 3984
2259 5881
2260 3153
2260 7122
2260 7676
2261 6158
2263 2291
2263 2373
2263 2374
2263 2618
2263 2680
2263 2966
2263 3309
2263 3364
2263 3373
2263 3457
2263 3704
2263 3762
2263 4177
2263 5173
2263 5291
2263 5410
2263 5661
2263 5697
2263 5762
2263 6125
2263 6194
2263 6266
2263 6477
2263 7012
2263 7160
2263 7185
2263 7562
2263 7627
2263 7694
2263 7797
2263 7840
2263 7878
2263 7928
2264 2805
2264 3490
2264 4803
2264 5308
2264 6141
2264 7091
2264 7292
2265 6381
2265 6802
2265 7394
2266 2360
2266 2406
2266 2490
2266 2742
2266 2977
2266 3054
2266 3115
2266 3166
2266 3294
2266 3373
2266 3415
2266 3529
2266 3530
2266 3537
2266 3544
2266 3829
2266 3848
2266 3873
2266 3924
2266 3966
2266 4093
2266 4654
2266 4804
2266 4876
2266 5015
2266 5046
2266 5065
2266 5207
2266 5262
2266 5308
2266 5342
2266 5391
2266 5415
2266 5594
2266 5764
2266 5766
2266 5830
2266 6048
2266 6090
2266 6110
2266 6162
2266 6208
2266 6238
2266 6276
2266 6383
2266 6780
2266 6791
2266 6793
2266 6990
2266 7071
2266 7281
2266 7349
2266 7390
2266 7467
2266 7515
2266 7555
2266 7562
2266 7706
2266 7730
2266 7760
2266 8089
2266 8123
2266 8168
2266 8188
2267 5330
2267 7815
2268 7308
2269 2865
2269 3718
2269 4443
2269 5162
2269 6180
2269 7346
2269 7646
2269 8053
2270 5336
2270 6382
2270 7276
2271 2408
2271 2540
2271 2584
2271 2777
2271 3280
2271 3580
2271 3651
2271 3662
2271 3761
2271 3925
2271 4439
2271 4445
2271 4511
2271 4689
2271 5197
2271 5234
2271 5454
2271 5807
2271 5880
2271 6111
2271 6330
2271 6506
2271 6809
2271 6835
2271 6840
2271 7332
2272 5291
2272 7465
2273 2756
2274 2760
2274 3232
2274 5290
2275 2845
2275 3108
2275 3440
2275 3976
2275 4101
2275 4132
2275 4586
2275 5569
2275 6162
2275 6870
2275 7012
2275 7457
2275 8123
2275 8142
2276 3021
2276 3118
2276 3202
2276 7276
2276 7691
2276 7848
2277 4445
2277 4563
2277 4715
2277 4818
2277 5507
2277 5546
2277 6111
2277 6163
2278 3644
2278 3826
2279 5240
2279 5674
2279 6381
2279 7727
2281 2957
2281 2966
2281 3107
2281 3355
2281 4586
2281 4987
2281 5126
2281 5291
2281 5308
2281 5528
2281 6067
2281 7508
2281 7562
2282 5857
2283 2335
2283 3214
2283 5066
2283 7318
2284 6240
2284 7394
2286 2310
2286 3904
2287 3826
2287 5308
2288 3923
2288 4778
2288 5279
2288 7277
2290 3291
2290 5738
2290 6315
2290 6550
2290 8057
2291 2349
2291 2442
2291 3249
2291 4429
2291 4695
2291 5738
2291 5874
2291 5889
2291 5896
2291 6088
2291 6145
2291 6266
2291 6272
2291 6482
2291 6530
2291 7005
2291 7351
2291 7385
2291 7438
2291 7723
2291 7861
2291 8023
2291 8028
2292 2853
2292 4865
2292 5430
2292 5617
2292 6543
2292 6814
2292 8232
2293 2301
2293 2399
2293 2408
2293 2504
2293 2556
2293 2916
2293 2952
2293 2968
2293 3039
2293 3094
2293 3232
2293 3461
2293 3580
2293 3825
2293 3826
2293 3937
2293 3994
2293 4056
2293 4147
2293 4148
2293 4164
2293 4326
2293 4330
2293 4348
2293 4423
2293 4445
2293 4464
2293 4507
2293 4689
2293 4843
2293 4851
2293 4983
2293 5044
2293 5059
2293 5121
2293 5136
2293 5197
2293 5272
2293 5285
2293 5300
2293 5363
2293 5378
2293 5390
2293 5456
2293 5507
2293 5542
2293 5622
2293 5725
2293 5791
2293 5843
2293 5978
2293 6002
2293 6109
2293 6163
2293 6361
2293 6389
2293 6489
2293 6540
2293 6592
2293 6619
2293 6683
2293 6686
2293 6742
2293 6847
2293 7035
2293 7144
2293 7332
2293 7383
2293 7506
2293 7704
2293 7809
2293 8001
2293 8062
2293 8066
2294 2756
2294 3087
2294 3370
2294 3593
2294 3778
2294 3849
2294 4053
2294 4271
2294 4720
2294 5958
2294 5961
2294 6174
2294 6344
2294 6535
2294 7423
2294 8142
2295 3019
2295 5106
2296 2330
2296 2379
2296 2495
2296 2503
2296 2644
2296 2673
2296 2681
2296 2904
2296 2917
2296 3102
2296 3104
2296 3318
2296 3433
2296 3456
2296 3521
2296 3563
2296 3568
2296 3651
2296 3751
2296 3758
2296 3780
2296 4028
2296 4080
2296 4146
2296 4214
2296 4370
2296 4485
2296 4512
2296 4686
2296 4929
2296 5053
2296 5095
2296 5136
2296 5164
2296 5204
2296 5251
2296 5456
2296 5498
2296 5601
2296 5610
2296 5646
2296 5657
2296 5811
2296 5824
2296 5858
2296 5920
2296 5933
2296 6014
2296 6053
2296 6089
2296 6155
2296 6196
2296 6271
2296 6336
2296 6349
2296 6414
2296 6445
2296 6480
2296 6492
2296 6496
2296 6607
2296 6751
2296 6867
2296 6932
2296 6949
2296 7013
2296 7122
2296 7132
2296 7181
2296 7187
2296 7284
2296 7332
2296 7391
2296 7412
2296 7481
2296 7487
2296 7567
2296 7605
2296 7621
2296 7705
2296 7733
2296 7738
2296 7800
2296 7902
2296 7974
2296 7985
2296 8119
2296 8205
2297 2967
2297 3455
2297 3491
2297 3973
2297 4792
2297 4960
2297 5284
2297 5569
2297 6711
2298 2509
2298 2598
2298 2957
2298 4580
2298 5881
2298 6393
2298 6938
2298 6976
2298 7011
2298 7080
2298 7088
2298 7276
2298 7592
2298 7650
2298 7651
2298 7691
2298 7824
2298 7881
2298 7950
2298 7999
2298 8003
2298 8047
2298 8109
2298 8162
2298 8170
2299 2540
2299 2555
2299 2916
2299 3818
2299 3962
2299 3980
2299 4439
2299 4445
2299 4511
2299 4715
2299 4939
2299 5454
2299 5552
2299 6111
2299 6521
2299 7727
2300 2635
2300 4661
2301 3060
2301 3104
2301 3818
2301 3925
2301 4085
2301 4370
2301 7332
2301 7605
2301 8119
2302 2374
2302 6596
2303 2303
2303 2509
2303 3309
2303 4399
2303 5687
2303 6962
2304 6962
2304 7694
2305 4715
2306 4950
2307 4538
2307 5108
2307 5216
2307 6870
2308 2806
2308 4199
2308 5110
2308 6454
2308 6482
2308 7012
2308 7164
2310 3060
2310 3425
2310 4419
2310 4614
2310 5009
2310 5121
2310 5136
2310 5272
2310 5352
2310 5464
2310 5546
2310 5622
2310 6111
2311 2787
2311 3225
2311 3568
2311 3847
2311 4386
2311 4696
2311 5308
2311 7088
2311 7842
2311 7913
2312 2336
2312 2742
2312 2753
2312 2869
2312 2978
2312 4399
2312 4437
2312 4795
2312 5764
2312 5874
2312 7463
2312 7944
2313 5137
2313 5714
2313 6790
2313 7071
2314 2390
2314 2569
2314 2747
2314 2904
2314 2995
2314 3102
2314 3153
2314 3393
2314 3662
2314 3747
2314 3758
2314 4085
2314 4150
2314 4398
2314 4485
2314 4590
2314 4599
2314 4792
2314 4814
2314 4969
2314 5171
2314 5198
2314 5266
2314 5610
2314 5724
2314 5726
2314 5773
2314 5831
2314 5843
2314 6248
2314 6299
2314 6321
2314 6336
2314 6340
2314 6347
2314 6432
2314 6496
2314 6572
2314 6580
2314 6739
2314 6867
2314 7041
2314 7122
2314 7224
2314 7229
2314 7332
2314 7381
2314 7391
2314 7412
2314 7621
2314 7622
2314 7733
2314 7800
2314 7886
2314 7929
2314 8053
2314 8140
2314 8142
2315 4538
2316 3202
2316 3537
2316 5874
2316 5956
2316 6696
2317 6222
2317 7390
2318 2551
2318 4330
2318 4977
2318 5546
2318 6797
2318 7727
2318 8001
2318 8101
2319 4144
2319 4991
2319 6096
2320 2529
2320 2536
2320 2759
2320 3325
2320 3373
2320 3536
2320 3924
2320 4637
2320 4736
2320 4802
2320 5046
2320 5173
2320 5697
2320 5802
2320 5854
2320 5856
2320 6436
2320 6621
2320 6661
2320 6984
2321 3581
2322 6833
2323 2509
2323 6930
2323 8170
2324 3364
2324 4747
2324 5342
2324 6587
2324 6874
2324 6939
2325 7034
2326 3166
2326 7034
2326 7360
2329 6141
2329 7411
2330 3768
2330 3803
2330 3818
2330 3980
2330 4326
2330 4968
2330 5009
2330 5133
2330 6111
2330 6129
2330 6218
2330 6381
2330 6686
2332 2462
2332 2609
2332 3281
2332 6325
2332 6710
2333 3309
2333 7842
2333 7913
2334 4363
2335 3015
2335 3104
2335 3418
2335 3451
2335 3456
2335 3829
2335 4705
2335 4958
2335 5089
2335 6155
2335 6381
2335 6704
2335 7605
2335 8124
2336 2770
2336 3335
2336 3684
2336 4401
2336 4945
2336 8103
2337 5804
2337 5977
2338 2843
2338 7034
2339 5152
2340 3309
2341 7034
2342 2436
2342 2957
2342 5291
2342 5748
2343 2759
2343 3364
2343 6685
2343 8139
2344 7171
2344 7276
2344 7591
2344 7999
2344 8109
2344 8162
2345 4991
2345 5211
2345 6343
2345 6347
2345 7158
2346 2576
2346 3013
2346 3262
2346 3875
2346 3895
2346 4022
2346 4603
2346 4770
2346 4778
2346 4793
2346 5017
2346 5413
2346 6587
2346 6651
2346 6656
2346 6842
2346 7011
2346 7190
2346 7217
2346 7276
2346 7321
2346 7689
2346 7963
2346 8109
2346 8162
2347 7346
2348 2378
2348 6321
2348 6339
2350 2659
2350 6526
2351 4586
2351 4773
2351 5735
2351 7244
2352 3486
2352 7217
2354 3089
2354 7034
2354 7346
2355 7012
2356 2519
2356 3392
2356 4131
2356 5661
2356 5802
2356 7562
2357 4496
2357 6833
2359 4636
2359 4654
2360 3127
2360 3774
2360 5480
2360 7167
2361 2853
2361 5830
2362 2660
2362 3700
2362 5985
2362 6482
2363 3117
2364 2364
2364 3415
2364 4409
2364 4451
2364 4778
2364 5785
2364 6208
2364 6250
2364 6325
2364 6833
2364 7183
2364 7652
2365 5274
2365 7263
2366 2366
2366 4616
2366 7418
2367 2557
2367 2594
2367 2598
2367 2604
2367 2607
2367 2624
2367 2660
2367 2759
2367 2862
2367 2957
2367 3141
2367 3166
2367 3524
2367 3684
2367 4087
2367 4127
2367 4177
2367 4539
2367 4586
2367 4778
2367 4788
2367 5166
2367 5291
2367 5295
2367 5336
2367 5696
2367 5748
2367 5980
2367 6103
2367 6209
2367 6383
2367 6796
2367 6925
2367 7264
2367 7276
2367 7360
2367 7587
2367 7771
2367 7806
2369 2404
2369 2869
2369 3281
2369 4291
2369 4565
2369 4991
2369 7091
2370 5555
2371 3135
2371 3937
2371 4686
2371 4814
2371 5532
2371 6259
2371 6299
2371 7890
2371 7960
2372 3691
2372 4399
2372 4991
2372 5871
2372 7937
2373 2763
2373 3621
2373 4227
2374 2374
2374 2805
2374 3309
2374 3849
2374 4586
2374 4933
2374 6625
2374 6887
2374 8000
2374 8004
2374 8233
2375 3544
2375 3855
2375 6354
2375 7080
2375 7360
2376 2609
2376 7217
2377 2444
2377 3653
2377 4533
2377 5269
2377 7276
2377 7360
2377 7532
2377 7788
2378 2424
2378 2430
2378 2471
2378 2515
2378 2529
2378 2845
2378 2869
2378 2938
2378 3019
2378 3098
2378 3209
2378 3270
2378 3288
2378 3309
2378 3322
2378 3373
2378 3407
2378 3467
2378 3667
2378 3691
2378 3765
2378 3770
2378 3930
2378 4216
2378 4259
2378 4354
2378 4360
2378 4399
2378 4482
2378 4539
2378 4540
2378 4623
2378 4661
2378 4677
2378 4695
2378 4696
2378 4706
2378 4711
2378 4741
2378 4804
2378 4902
2378 4949
2378 4957
2378 4997
2378 5110
2378 5112
2378 5289
2378 5422
2378 5681
2378 5691
2378 5802
2378 5854
2378 5918
2378 6145
2378 6187
2378 6266
2378 6307
2378 7089
2378 7091
2378 7096
2378 7190
2378 7451
2378 7504
2378 7525
2378 7535
2378 7555
2378 7610
2378 7839
2378 7963
2378 8259
2379 2407
2379 3580
2379 3925
2379 4439
2379 4445
2379 4511
2379 5197
2379 5552
2379 6381
2379 6414
2379 7126
2379 7727
2380 2502
2380 2687
2381 6085
2382 3573
2382 3642
2382 5785
2382 7012
2382 7400
2383 2383
2383 2768
2383 2869
2383 2918
2383 3118
2383 3270
2383 4018
2383 4144
2383 4223
2383 4230
2383 4416
2383 4696
2383 4734
2383 5383
2383 5422
2383 5594
2383 6096
2383 6587
2383 6654
2383 6939
2383 6943
2383 7091
2383 7190
2383 7276
2383 7321
2383 7625
2383 7839
2384 4223
2384 6000
2384 6282
2385 8109
2385 8162
2386 7646
2387 3089
2387 3202
2387 4789
2387 5874
2387 7034
2387 7346
2388 2388
2388 6211
2389 6283
2390 2408
2390 2540
2390 2551
2390 2555
2390 2821
2390 2940
2390 2995
2390 3015
2390 3039
2390 3060
2390 3102
2390 3145
2390 3280
2390 3331
2390 3596
2390 3662
2390 3710
2390 3818
2390 3918
2390 4056
2390 4148
2390 4370
2390 4419
2390 4423
2390 4445
2390 4998
2390 5008
2390 5087
2390 5121
2390 5507
2390 5546
2390 5657
2390 5726
2390 5737
2390 5880
2390 6129
2390 6336
2390 6381
2390 6399
2390 6567
2390 6592
2390 6619
2390 6683
2390 6715
2390 6802
2390 6835
2390 7332
2390 7747
2390 7800
2390 7803
2390 7851
2390 8062
2390 8124
2391 3056
2391 3364
2391 3826
2391 3867
2391 3944
2391 4773
2391 4778
2391 5262
2391 5763
2391 6343
2391 6347
2391 6412
2391 6718
2391 6820
2391 7483
2391 7677
2391 7758
2391 7788
2391 8103
2392 7887
2393 7184
2394 2394
2394 3184
2394 3531
2394 3622
2394 3771
2394 4165
2394 4659
2394 4992
2394 6022
2394 6229
2394 6717
2394 6791
2394 7316
2395 2598
2395 2702
2395 3085
2395 3385
2395 3944
2395 4032
2395 4586
2395 5291
2395 5441
2395 6067
2396 6739
2397 2859
2397 3891
2397 5871
2397 6077
2397 6118
2398 2715
2398 5773
2399 2399
2399 3309
2399 4440
2399 4733
2399 5546
2399 8093
2400 3388
2401 2497
2401 2848
2401 3270
2401 4051
2401 4706
2401 4991
2401 5244
2401 5830
2402 8023
2403 2403
2403 2806
2404 2598
2404 2764
2404 2957
2404 3233
2404 3581
2404 3902
2404 4127
2404 4317
2404 4356
2404 4477
2404 4586
2404 4644
2404 4661
2404 4974
2404 5062
2404 5150
2404 5212
2404 5291
2404 5654
2404 5709
2404 5735
2404 5946
2404 6656
2404 7191
2404 7276
2404 7401
2404 7473
2404 7591
2404 7775
2404 7819
2404 8012
2405 6440
2405 6475
2405 6756
2405 6941
2405 7276
2405 7292
2405 7822
2406 2413
2406 2418
2406 2431
2406 2452
2406 2483
2406 2505
2406 2513
2406 2598
2406 2607
2406 2660
2406 2753
2406 2759
2406 2805
2406 2823
2406 2957
2406 3118
2406 3206
2406 3233
2406 3246
2406 3298
2406 3355
2406 3364
2406 3373
2406 3463
2406 3465
2406 3522
2406 3524
2406 3530
2406 3679
2406 3804
2406 3852
2406 3895
2406 3902
2406 3944
2406 3957
2406 4093
2406 4127
2406 4222
2406 4360
2406 4467
2406 4468
2406 4475
2406 4519
2406 4533
2406 4568
2406 4586
2406 4645
2406 4661
2406 4698
2406 4718
2406 4800
2406 4834
2406 5004
2406 5071
2406 5098
2406 5126
2406 5199
2406 5225
2406 5243
2406 5254
2406 5262
2406 5291
2406 5326
2406 5370
2406 5466
2406 5493
2406 5515
2406 5642
2406 5649
2406 5694
2406 5696
2406 5749
2406 5757
2406 5802
2406 5874
2406 5997
2406 6067
2406 6375
2406 6458
2406 6517
2406 6535
2406 6573
2406 6575
2406 6587
2406 6656
2406 6705
2406 6716
2406 6748
2406 6784
2406 6801
2406 6823
2406 6865
2406 6870
2406 6874
2406 6898
2406 6915
2406 6929
2406 6938
2406 6939
2406 6946
2406 6966
2406 7001
2406 7011
2406 7072
2406 7088
2406 7170
2406 7244
2406 7264
2406 7276
2406 7360
2406 7413
2406 7463
2406 7473
2406 7501
2406 7532
2406 7564
2406 7587
2406 7592
2406 7638
2406 7683
2406 7734
2406 7788
2406 7926
2406 7939
2406 8004
2406 8036
2406 8047
2406 8071
2406 8145
2407 3015
2407 3153
2407 3427
2407 3438
2407 3596
2407 3603
2407 3725
2407 3904
2407 4150
2407 4599
2407 5026
2407 5164
2407 5321
2407 5377
2407 5507
2407 5771
2407 5800
2407 6014
2407 6053
2407 6140
2407 6172
2407 6248
2407 6268
2407 6299
2407 6326
2407 6349
2407 6489
2407 6598
2407 6843
2407 6867
2407 7181
2407 7408
2407 7456
2407 7481
2407 7605
2407 7608
2407 7646
2407 7722
2407 7767
2407 7902
2407 8053
2407 8116
2407 8124
2408 2421
2408 2441
2408 2495
2408 2503
2408 2510
2408 2526
2408 2569
2408 2611
2408 2619
2408 2648
2408 2673
2408 2681
2408 2904
2408 2906
2408 2995
2408 3008
2408 3025
2408 3102
2408 3104
2408 3133
2408 3201
2408 3273
2408 3280
2408 3293
2408 3311
2408 3456
2408 3491
2408 3521
2408 3547
2408 3566
2408 3600
2408 3651
2408 3689
2408 3747
2408 3758
2408 3794
2408 3884
2408 3904
2408 3913
2408 3925
2408 3937
2408 4004
2408 4028
2408 4085
2408 4115
2408 4249
2408 4380
2408 4398
2408 4476
2408 4485
2408 4511
2408 4514
2408 4546
2408 4599
2408 4686
2408 4713
2408 4714
2408 4814
2408 4831
2408 4843
2408 4870
2408 4929
2408 4946
2408 4950
2408 4952
2408 4990
2408 5026
2408 5053
2408 5078
2408 5087
2408 5095
2408 5120
2408 5164
2408 5202
2408 5204
2408 5266
2408 5283
2408 5321
2408 5338
2408 5403
2408 5456
2408 5461
2408 5468
2408 5478
2408 5498
2408 5500
2408 5507
2408 5570
2408 5610
2408 5622
2408 5632
2408 5646
2408 5702
2408 5722
2408 5726
2408 5743
2408 5771
2408 5797
2408 5800
2408 5824
2408 5831
2408 5933
2408 5945
2408 5957
2408 6033
2408 6089
2408 6129
2408 6155
2408 6163
2408 6180
2408 6199
2408 6248
2408 6259
2408 6299
2408 6321
2408 6336
2408 6349
2408 6399
2408 6414
2408 6468
2408 6496
2408 6568
2408 6574
2408 6581
2408 6649
2408 6715
2408 6724
2408 6767
2408 6834
2408 6849
2408 6855
2408 6866
2408 6907
2408 6949
2408 7003
2408 7013
2408 7041
2408 7122
2408 7126
2408 7132
2408 7228
2408 7246
2408 7290
2408 7332
2408 7376
2408 7393
2408 7408
2408 7412
2408 7456
2408 7492
2408 7517
2408 7559
2408 7567
2408 7605
2408 7608
2408 7621
2408 7646
2408 7666
2408 7705
2408 7755
2408 7767
2408 7890
2408 7902
2408 7937
2408 7985
2408 7994
2408 8029
2408 8119
2408 8216
2408 8237
2409 4586
2410 3089
2410 3592
2410 4100
2410 4399
2410 4500
2410 4879
2410 6226
2410 6383
2410 6619
2410 7034
2410 7346
2410 7733
2410 8153
2411 7393
2411 7934
2412 5477
2412 5824
2412 7346
2413 3309
2413 4399
2413 6201
2414 3303
2414 4399
2414 4756
2414 6110
2414 6162
2414 7281
2414 7348
2414 7386
2415 3246
2415 3580
2415 3884
2415 3925
2415 3962
2415 3994
2415 4324
2415 4432
2415 5197
2415 5454
2415 5627
2415 5674
2415 5726
2415 6002
2415 7727
2415 7809
2415 7907
2416 2581
2416 3473
2416 4237
2416 4586
2416 4859
2416 5694
2416 5874
2416 6435
2417 6259
2418 2448
2418 4051
2418 4230
2418 4482
2418 4586
2418 4793
2418 4991
2418 5607
2418 5785
2418 5789
2418 5870
2418 6257
2418 7055
2419 3909
2421 3818
2421 3984
2421 4445
2421 4939
2421 5121
2421 6019
2421 6111
2421 6381
2421 7004
2421 7100
2421 7727
2422 3173
2422 6282
2423 2932
2423 4291
2423 5074
2423 6421
2423 6893
2423 7299
2424 2598
2424 2966
2424 6052
2424 7080
2424 7360
2424 8013
2425 2510
2425 3222
2425 5498
2426 4578
2426 7034
2427 2919
2429 3778
2429 7034
2430 2497
2430 3915
2430 3995
2430 4416
2430 5186
2430 5333
2430 5373
2430 6654
2430 6938
2430 6939
2430 7689
2430 8013
2431 4780
2432 2652
2432 8052
2433 3309
2433 4011
2433 4399
2433 5216
2433 8225
2434 5171
2434 5646
2434 6259
2435 2957
2435 4048
2435 4397
2436 2642
2436 3281
2436 3793
2436 4833
2436 5046
2436 5802
2436 6145
2437 3036
2437 3938
2437 4360
2438 5065
2438 5273
2439 7208
2440 5151
2440 6141
2441 2540
2441 2551
2441 2555
2441 3058
2441 3280
2441 3561
2441 3651
2441 3818
2441 3825
2441 3918
2441 3925
2441 4348
2441 4977
2441 5121
2441 5136
2441 5233
2441 5807
2441 6381
2441 6567
2441 6799
2441 6802
2441 6840
2441 7105
2441 7332
2441 7727
2441 7985
2443 2745
2444 2594
2444 3270
2444 3617
2444 3679
2444 3902
2444 3957
2444 4166
2444 4191
2444 4215
2444 4397
2444 4416
2444 4527
2444 4747
2444 5071
2444 5383
2444 5515
2444 5571
2444 6160
2444 6372
2444 6383
2444 6573
2444 6587
2444 6625
2444 6634
2444 6654
2444 6874
2444 6937
2444 6938
2444 6939
2444 6941
2444 6946
2444 6951
2444 7072
2444 7276
2444 7396
2444 7596
2444 7597
2444 7691
2444 7734
2444 7857
2444 7870
2444 7897
2444 7986
2444 8068
2444 8197
2445 3826
2446 4565
2446 5871
2446 5953
2446 6990
2446 7406
2447 5937
2448 5746
2448 6587
2448 6735
2450 8142
2451 2799
2451 3412
2451 4100
2451 5214
2451 6842
2451 7563
2451 8262
2452 2687
2452 4368
2452 5166
2452 5302
2452 6322
2453 4016
2453 5421
2453 5514
2453 6618
2453 7133
2453 7871
2453 7935
2454 2900
2454 4954
2454 5198
2454 7373
2454 7788
2455 4292
2456 2785
2456 2831
2456 3299
2456 3745
2456 4399
2456 5127
2456 7123
2456 8012
2456 8132
2456 8241
2458 2490
2458 2759
2458 2931
2458 2957
2458 3355
2458 3530
2458 4773
2458 5291
2458 5977
2458 7047
2458 7096
2458 7190
2458 7689
2458 8023
2460 2460
2460 2598
2460 3016
2460 3019
2460 3064
2460 3447
2460 3629
2460 3691
2460 3702
2460 3960
2460 4055
2460 4382
2460 4416
2460 4475
2460 4773
2460 5071
2460 5126
2460 5212
2460 5607
2460 5870
2460 5880
2460 6337
2460 6525
2460 6542
2460 6990
2460 7515
2460 7596
2460 7597
2460 7657
2460 7690
2460 7839
2460 7857
2460 7870
2460 7897
2460 7935
2460 8118
2461 4168
2462 2494
2462 3658
2462 3679
2462 3871
2462 4586
2462 4604
2462 4623
2462 5004
2462 5212
2462 5607
2462 5870
2462 6634
2462 6654
2462 6874
2462 6939
2462 7167
2462 7188
2462 7986
2462 8197
2463 4808
2464 3393
2464 5800
2464 7605
2465 2465
2468 2862
2468 4586
2468 7276
2468 7292
2469 2845
2469 3644
2469 5594
2470 2489
2470 3117
2470 4093
2470 6557
2470 6920
2471 2494
2471 7190
2472 3673
2473 3293
2473 3596
2473 4946
2473 6704
2473 6907
2473 7614
2473 7621
2473 8216
2474 6866
2476 5729
2476 6415
2477 6010
2477 6145
2478 2542
2478 2598
2478 2716
2478 2862
2478 3118
2478 3270
2478 4661
2478 5071
2478 5186
2478 5515
2478 5571
2478 5713
2478 6654
2478 6735
2478 6754
2478 6874
2478 6939
2478 6943
2478 6946
2478 7071
2478 7167
2478 7235
2478 7321
2478 7437
2478 7689
2479 7204
2479 8058
2480 4051
2480 5305
2480 6032
2480 6625
2480 7124
2481 2632
2481 2643
2481 2696
2481 2805
2481 2862
2481 3317
2481 3355
2481 3467
2481 3507
2481 3902
2481 4057
2481 4317
2481 4354
2481 4519
2481 4568
2481 4572
2481 4594
2481 4661
2481 4773
2481 4778
2481 5212
2481 5606
2481 5661
2481 6062
2481 6182
2481 6791
2481 7054
2481 7096
2481 7148
2481 7167
2481 7189
2481 7237
2481 7398
2481 7437
2481 7587
2481 7592
2481 7691
2481 7906
2481 7998
2481 8105
2482 7926
2483 2529
2483 2803
2483 3013
2483 4399
2483 4426
2483 5491
2483 5816
2483 6383
2483 6791
2483 7706
2483 7937
2483 8168
2484 2484
2485 6717
2486 8167
2487 2759
2487 3053
2487 4712
2487 6276
2487 6304
2487 6416
2487 7652
2489 2862
2489 6939
2489 7276
2489 7491
2489 7824
2490 2687
2490 2862
2490 2966
2490 4509
2490 4513
2490 4804
2490 5163
2490 5294
2490 5694
2490 5834
2490 6412
2490 6791
2490 6938
2490 7034
2490 7252
2490 7636
2490 7716
2490 7775
2491 2862
2492 2869
2493 7190
2494 3604
2494 4291
2494 6449
2494 6710
2494 8023
2495 3092
2495 3280
2495 3925
2495 4148
2495 4348
2495 4445
2495 4516
2495 4574
2495 4732
2495 4977
2495 5121
2495 5197
2495 5234
2495 5261
2495 5311
2495 5338
2495 5352
2495 5552
2495 5622
2495 5674
2495 6111
2495 6336
2495 6802
2495 7332
2495 7529
2495 7727
2495 7985
2496 4460
2497 5222
2498 3373
2498 4051
2498 4416
2498 5885
2498 6407
2498 7794
2501 5885
2501 6141
2501 7011
2501 7360
2502 2502
2502 2876
2502 3233
2502 3525
2502 3671
2502 4617
2502 5083
2502 5796
2502 6048
2502 6311
2502 6611
2502 7900
2503 3102
2503 3651
2503 4387
2503 5261
2503 6802
2503 7985
2504 3393
2504 4052
2504 4814
2504 4929
2504 5726
2504 5824
2504 6299
2504 6468
2504 6623
2504 6980
2504 7509
2505 2571
2505 3067
2505 3132
2505 3209
2505 3354
2505 3691
2505 3891
2505 4475
2505 4991
2505 5517
2505 5739
2505 5802
2505 5871
2505 5918
2506 3440
2506 8142
2507 5897
2507 6103
2507 6141
2507 6345
2507 7365
2507 7381
2507 7502
2507 8020
2508 3233
2508 4560
2508 7563
2509 2848
2509 3071
2509 3722
2509 3726
2509 3815
2509 4014
2509 4101
2509 4224
2509 4432
2509 4862
2509 5536
2509 5558
2509 5569
2509 5882
2509 6101
2509 6161
2509 6355
2509 7210
2509 7358
2509 7625
2509 7656
2509 7867
2509 7878
2509 8141
2509 8143
2509 8148
2510 2916
2510 2960
2510 3309
2510 3711
2510 3733
2510 3825
2510 4445
2510 4713
2510 5266
2510 5674
2510 6323
2510 6330
2510 6696
2510 7144
2510 7747
2510 8136
2511 7773
2512 3063
2512 4475
2512 6328
2513 2687
2513 2977
2513 3325
2513 3891
2513 4393
2513 4736
2513 5422
2513 5854
2513 6818
2513 7281
2515 2624
2515 2862
2515 2966
2515 3270
2515 3902
2515 4166
2515 4397
2515 4468
2515 4718
2515 4747
2515 5212
2515 5225
2515 5336
2515 5515
2515 5530
2515 5709
2515 5874
2515 5902
2515 6209
2515 6634
2515 6705
2515 6735
2515 6754
2515 6938
2515 6939
2515 6979
2515 7034
2515 7190
2515 7276
2515 7396
2515 7501
2515 7549
2515 7596
2515 7597
2515 7680
2515 7691
2515 7839
2515 7857
2515 7870
2515 7897
2517 5348
2518 3524
2518 7775
2519 2759
2519 3352
2519 3530
2519 3704
2519 5697
2519 5762
2519 7562
2519 7694
2520 6682
2521 3695
2521 6241
2521 7373
2521 7587
2521 7788
2523 4473
2523 4586
2523 7080
2523 7276
2523 7687
2524 3280
2524 3925
2524 7850
2524 8125
2525 2525
2527 3842
2528 2528
2528 2576
2528 2687
2528 2957
2528 3684
2528 3826
2528 4399
2528 4498
2528 5108
2528 6098
2528 7190
2528 7217
2528 7252
2528 7398
2528 8059
2529 2759
2529 2862
2529 2957
2529 2966
2529 3107
2529 3355
2529 3774
2529 3838
2529 4237
2529 4586
2529 5126
2529 5291
2529 5749
2529 5751
2529 5762
2529 5885
2529 6383
2529 6435
2529 6535
2529 6621
2529 6634
2529 6842
2529 6853
2529 6915
2529 7011
2529 7158
2529 7217
2529 7237
2529 7360
2529 7840
2531 6382
2533 4399
2533 6162
2533 6184
2533 6632
2533 7692
2534 3261
2534 6141
2536 3486
2536 4131
2536 6147
2536 7217
2537 2537
2537 2756
2537 2876
2537 2957
2537 3309
2537 4586
2537 4878
2537 5253
2537 5981
2537 6082
2537 6368
2537 6558
2537 6576
2537 6730
2537 7532
2537 8211
2538 6628
2538 7944
2538 8137
2539 6791
2540 2569
2540 2619
2540 2669
2540 2795
2540 2850
2540 2904
2540 2964
2540 3051
2540 3058
2540 3102
2540 3104
2540 3133
2540 3151
2540 3175
2540 3280
2540 3293
2540 3318
2540 3319
2540 3329
2540 3396
2540 3418
2540 3427
2540 3521
2540 3566
2540 3596
2540 3603
2540 3710
2540 3725
2540 3749
2540 3884
2540 3925
2540 4028
2540 4085
2540 4115
2540 4146
2540 4150
2540 4379
2540 4443
2540 4463
2540 4476
2540 4485
2540 4599
2540 4714
2540 4917
2540 4929
2540 4950
2540 4990
2540 5053
2540 5076
2540 5078
2540 5095
2540 5164
2540 5171
2540 5202
2540 5204
2540 5251
2540 5266
2540 5338
2540 5403
2540 5444
2540 5468
2540 5489
2540 5507
2540 5513
2540 5588
2540 5601
2540 5602
2540 5610
2540 5632
2540 5641
2540 5646
2540 5680
2540 5726
2540 5771
2540 5773
2540 5800
2540 5831
2540 5933
2540 5957
2540 6033
2540 6036
2540 6053
2540 6140
2540 6155
2540 6163
2540 6207
2540 6230
2540 6259
2540 6321
2540 6336
2540 6349
2540 6399
2540 6414
2540 6496
2540 6574
2540 6581
2540 6715
2540 6724
2540 6739
2540 6799
2540 6867
2540 6907
2540 7003
2540 7041
2540 7090
2540 7122
2540 7125
2540 7181
2540 7224
2540 7246
2540 7307
2540 7332
2540 7372
2540 7376
2540 7408
2540 7481
2540 7487
2540 7492
2540 7503
2540 7509
2540 7545
2540 7553
2540 7605
2540 7608
2540 7621
2540 7705
2540 7722
2540 7767
2540 7776
2540 7811
2540 7902
2540 7946
2540 7994
2540 8062
2540 8119
2541 3202
2542 2609
2542 3067
2542 3209
2542 3820
2542 3867
2542 3924
2542 3930
2542 3969
2542 4368
2542 4654
2542 4696
2542 4793
2542 4813
2542 4976
2542 5046
2542 5329
2542 5422
2542 5681
2542 5729
2542 5757
2542 5802
2542 6090
2542 6243
2542 6621
2542 6996
2542 7235
2542 7281
2542 7451
2542 8016
2543 2543
2543 2557
2543 2609
2543 2632
2543 2862
2543 3181
2543 3627
2543 3938
2543 4087
2543 4167
2543 4399
2543 4513
2543 4723
2543 4778
2543 5386
2543 5472
2543 5661
2543 5748
2543 5749
2543 5750
2543 5762
2543 5838
2543 6022
2543 6194
2543 6415
2543 6912
2543 6925
2543 6929
2543 7937
2544 4164
2544 5186
2544 7727
2545 5472
2545 6705
2545 6938
2545 6946
2545 7190
2545 7998
2546 4736
2546 5473
2548 3383
2548 3405
2548 3491
2548 5353
2549 7034
2549 8109
2549 8162
2550 2626
2550 5346
2551 2569
2551 2795
2551 2960
2551 2964
2551 3015
2551 3058
2551 3104
2551 3174
2551 3175
2551 3230
2551 3293
2551 3318
2551 3393
2551 3426
2551 3438
2551 3456
2551 3521
2551 3904
2551 3920
2551 4146
2551 4150
2551 4348
2551 4398
2551 4464
2551 4686
2551 4714
2551 4946
2551 5026
2551 5053
2551 5095
2551 5136
2551 5164
2551 5377
2551 5489
2551 5601
2551 5602
2551 5622
2551 5646
2551 5657
2551 5800
2551 6053
2551 6163
2551 6248
2551 6432
2551 6468
2551 6496
2551 6520
2551 6563
2551 6704
2551 6739
2551 6843
2551 6858
2551 6866
2551 6949
2551 6954
2551 7122
2551 7246
2551 7332
2551 7391
2551 7408
2551 7481
2551 7621
2551 7712
2551 7733
2551 7736
2551 7800
2551 7929
2551 8062
2551 8073
2551 8124
2551 8216
2552 5253
2552 7596
2552 7597
2552 7857
2552 7870
2552 7897
2553 6634
2555 2579
2555 2795
2555 2841
2555 2960
2555 2964
2555 3008
2555 3051
2555 3058
2555 3076
2555 3104
2555 3260
2555 3293
2555 3318
2555 3393
2555 3521
2555 3596
2555 3747
2555 3751
2555 4080
2555 4115
2555 4249
2555 4349
2555 4464
2555 4511
2555 4599
2555 4686
2555 4705
2555 4814
2555 4946
2555 4950
2555 4958
2555 5095
2555 5164
2555 5171
2555 5366
2555 5461
2555 5489
2555 5602
2555 5622
2555 5632
2555 5641
2555 5646
2555 5680
2555 5722
2555 5771
2555 5877
2555 6053
2555 6064
2555 6129
2555 6163
2555 6248
2555 6259
2555 6299
2555 6486
2555 6496
2555 6563
2555 6843
2555 6949
2555 6954
2555 7003
2555 7041
2555 7090
2555 7122
2555 7132
2555 7246
2555 7284
2555 7332
2555 7391
2555 7408
2555 7481
2555 7605
2555 7608
2555 7676
2555 7733
2555 7767
2555 7890
2555 7902
2555 7929
2556 7125
2557 2918
2557 2977
2557 3126
2557 3373
2557 3627
2557 3873
2557 4482
2557 4739
2557 5004
2557 5046
2557 5365
2557 5366
2557 5658
2557 5659
2557 5660
2557 5661
2557 5662
2557 5667
2557 5830
2557 5903
2557 6040
2557 6110
2557 6266
2557 6626
2557 6763
2557 6791
2557 6817
2557 6860
2557 6896
2557 6990
2557 7137
2557 7274
2557 7562
2557 7630
2557 7634
2558 3951
2558 5600
2558 7047
2559 4151
2560 3937
2560 4330
2560 4966
2560 6141
2560 7500
2561 2708
2561 4812
2562 2562
2562 3112
2563 3388
2564 3937
2564 7089
2565 2763
2565 2927
2565 6759
2566 3703
2566 5762
2566 7665
2566 7679
2567 2567
2567 4399
2567 7335
2568 7034
2569 3818
2569 4164
2569 4439
2569 4631
2569 5136
2569 5192
2569 5300
2569 5454
2569 6111
2569 6218
2569 6563
2569 6567
2569 7727
2569 7747
2569 8255
2570 2578
2570 4712
2570 6188
2570 7397
2571 2624
2571 3653
2571 4144
2571 4166
2571 4360
2571 4416
2571 4604
2571 5126
2571 6067
2571 6654
2571 6735
2571 6784
2571 6851
2571 6874
2571 6939
2571 6946
2571 7047
2571 7072
2571 7235
2571 7243
2571 7360
2571 7554
2571 7596
2571 7597
2571 7857
2571 7870
2571 7892
2571 7897
2571 7990
2571 7998
2571 8013
2573 2573
2573 5609
2574 5012
2574 6428
2575 2806
2575 3885
2575 7011
2575 7632
2575 7824
2575 7999
2575 8047
2575 8109
2575 8162
2576 2869
2576 2977
2576 3270
2576 4144
2576 4291
2576 4565
2576 5462
2576 5952
2576 6145
2576 6382
2576 6573
2576 6928
2576 6939
2576 7091
2576 7276
2576 7689
2576 7706
2576 7822
2576 8168
2577 3202
2577 3654
2577 6258
2577 8116
2578 4513
2578 6915
2579 2700
2579 3980
2579 3984
2579 4423
2579 4614
2579 4871
2579 6163
2579 6799
2579 7318
2579 7332
2579 7380
2579 7985
2580 3495
2580 4773
2580 6984
2580 7167
2581 2805
2581 5291
2581 6429
2582 4397
2583 3485
2583 4100
2583 4804
2583 5638
2583 5914
2584 3751
2584 5824
2584 6843
2584 7408
2584 7492
2585 7463
2586 3089
2586 4307
2586 4723
2586 4812
2586 5472
2587 2964
2587 8053
2588 5065
2588 5887
2589 3097
2589 4269
2589 4586
2589 5379
2590 4572
2591 2669
2591 3039
2591 3102
2591 3318
2591 3427
2591 3521
2591 4686
2591 5171
2591 5300
2591 5610
2591 6321
2591 6468
2591 6907
2591 7097
2591 7126
2591 7376
2591 7408
2591 7487
2591 7705
2592 3847
2592 5711
2593 3122
2593 4262
2593 4368
2593 5046
2593 6082
2593 6388
2593 6390
2593 6858
2593 6990
2593 7036
2593 7054
2593 7164
2594 2918
2594 3132
2594 3270
2594 3629
2594 3891
2594 3924
2594 4018
2594 4073
2594 4144
2594 4223
2594 4696
2594 4770
2594 4991
2594 5190
2594 5346
2594 5918
2594 6096
2594 6943
2594 7321
2595 7829
2596 2596
2597 3202
2597 6628
2597 8137
2598 2598
2598 2609
2598 2727
2598 2828
2598 2869
2598 2928
2598 2946
2598 2958
2598 2970
2598 3059
2598 3209
2598 3236
2598 3286
2598 3356
2598 3366
2598 3463
2598 3485
2598 3494
2598 3530
2598 3544
2598 3575
2598 3636
2598 3722
2598 3729
2598 3778
2598 3827
2598 3857
2598 3860
2598 3863
2598 3897
2598 3930
2598 3967
2598 3979
2598 4001
2598 4048
2598 4068
2598 4187
2598 4291
2598 4347
2598 4368
2598 4468
2598 4510
2598 4654
2598 4682
2598 4706
2598 4803
2598 4804
2598 4846
2598 4945
2598 4975
2598 5046
2598 5110
2598 5214
2598 5262
2598 5329
2598 5342
2598 5413
2598 5436
2598 5490
2598 5541
2598 5612
2598 5613
2598 5638
2598 5713
2598 5785
2598 5802
2598 5830
2598 5874
2598 5887
2598 5953
2598 6048
2598 6071
2598 6110
2598 6208
2598 6281
2598 6374
2598 6383
2598 6406
2598 6456
2598 6557
2598 6615
2598 6627
2598 6640
2598 6651
2598 6711
2598 6870
2598 6996
2598 7029
2598 7091
2598 7146
2598 7164
2598 7180
2598 7191
2598 7281
2598 7385
2598 7400
2598 7468
2598 7515
2598 7555
2598 7562
2598 7768
2598 7813
2598 7859
2598 7861
2598 8031
2598 8057
2598 8089
2598 8123
2598 8232
2600 3089
2600 4223
2600 4991
2600 5295
2600 6791
2600 7555
2600 7771
2601 2957
2602 6949
2602 8116
2604 2869
2604 5296
2604 5308
2604 5874
2604 6440
2604 7005
2604 7214
2604 7964
2605 3502
2605 5634
2606 4464
2606 5498
2606 6268
2606 7408
2606 7698
2606 8205
2607 3627
2607 5918
2607 6791
2608 2869
2608 4712
2608 6407
2609 2658
2609 2716
2609 2736
2609 2769
2609 2788
2609 2862
2609 2957
2609 3373
2609 3413
2609 3486
2609 3507
2609 3530
2609 3599
2609 3624
2609 3849
2609 3995
2609 4315
2609 4420
2609 4661
2609 4787
2609 5193
2609 5262
2609 5269
2609 5291
2609 5348
2609 5408
2609 5427
2609 5462
2609 5567
2609 5609
2609 5649
2609 5751
2609 5938
2609 5944
2609 5968
2609 5997
2609 6111
2609 6118
2609 6269
2609 6393
2609 6409
2609 6482
2609 6761
2609 6816
2609 6836
2609 6927
2609 7011
2609 7034
2609 7042
2609 7175
2609 7235
2609 7244
2609 7360
2609 7587
2609 7602
2609 7620
2609 7686
2609 7694
2609 7726
2609 7734
2609 7781
2609 7788
2609 7831
2609 7976
2609 8012
2609 8047
2609 8170
2609 8200
2610 6382
2611 3832
2611 4164
2611 4387
2611 4445
2611 4511
2611 4563
2611 4964
2611 5552
2611 5674
2611 6218
2611 6563
2611 7985
2612 2806
2612 2909
2613 7204
2613 8058
2615 2806
2615 3232
2615 3306
2615 4960
2615 5290
2615 5323
2615 7854
2616 3580
2616 3937
2616 3980
2616 4379
2616 5026
2616 6109
2616 6563
2616 7376
2616 7461
2616 7500
2616 7553
2616 7727
2618 2862
2618 3287
2618 3352
2618 3355
2618 3523
2618 3684
2618 4778
2618 4888
2618 5308
2618 5751
2618 5762
2618 6248
2618 6685
2618 6718
2618 7158
2618 7161
2618 7276
2618 7562
2618 7770
2618 7790
2618 7927
2618 8030
2618 8139
2619 3280
2619 3451
2619 3818
2619 3925
2619 3980
2619 4164
2619 4348
2619 4715
2619 5136
2619 5552
2619 6802
2620 5167
2621 6462
2622 6428
2622 7181
2622 7346
2623 2660
2623 2804
2623 3107
2623 3358
2623 3407
2623 3530
2623 3592
2623 3867
2623 3957
2623 4103
2623 4199
2623 4414
2623 4486
2623 4586
2623 5084
2623 5198
2623 5273
2623 5291
2623 5348
2623 5418
2623 5609
2623 5760
2623 5764
2623 5854
2623 5980
2623 6032
2623 6162
2623 6339
2623 6379
2623 6383
2623 6454
2623 6456
2623 6535
2623 6613
2623 6694
2623 6915
2623 7276
2623 7352
2623 7355
2623 7360
2623 7387
2623 7632
2623 8145
2624 2970
2624 3103
2624 3373
2624 4475
2624 4525
2624 4653
2624 4804
2624 4991
2624 5104
2624 5105
2624 5216
2624 5802
2624 6208
2624 6621
2624 6717
2625 4956
2625 6007
2627 3756
2627 5705
2627 7457
2628 3124
2628 4244
2628 5785
2628 5856
2628 6208
2628 6248
2628 7124
2629 3497
2630 6047
2630 7732
2631 2904
2632 2869
2632 3165
2632 4188
2632 4399
2632 4489
2632 4586
2632 4793
2632 4804
2632 5764
2632 5780
2632 5802
2632 5816
2632 6101
2632 6162
2632 6793
2632 7395
2634 4123
2634 4170
2635 2635
2635 4945
2636 3499
2636 3684
2636 3983
2636 4858
2636 5084
2636 5262
2636 5586
2636 6267
2636 6658
2636 6856
2637 7346
2638 6632
2638 7515
2639 2780
2641 2918
2641 3253
2641 3482
2641 4265
2641 5181
2641 5697
2641 5965
2641 5966
2641 6241
2641 6388
2641 6795
2641 6879
2642 3467
2642 3826
2642 5642
2642 5974
2642 7056
2642 8036
2643 2743
2643 4723
2644 3918
2644 3937
2644 4146
2644 4348
2644 4794
2644 5121
2644 5477
2644 5563
2644 5956
2644 6109
2644 6111
2644 6600
2644 7144
2644 7332
2644 7801
2644 8053
2645 5422
2645 6226
2645 7784
2646 7775
2647 7034
2647 7040
2647 7127
2647 8223
2648 3058
2648 3104
2648 3269
2648 3662
2648 3749
2648 3825
2648 3884
2648 3962
2648 4148
2648 4590
2648 4722
2648 5121
2648 5352
2648 5507
2648 5992
2648 6330
2648 6336
2648 6496
2648 6519
2648 7144
2648 7850
2648 7851
2648 8125
2649 2890
2650 4798
2650 7632
2651 4765
2651 7208
2654 5091
2656 3410
2656 4290
2656 6830
2657 7034
2657 7346
2658 4841
2658 6067
2658 8023
2659 2659
2659 6482
2660 2687
2660 2804
2660 3028
2660 3063
2660 3103
2660 3166
2660 3172
2660 3356
2660 3368
2660 3499
2660 3575
2660 3653
2660 3691
2660 3857
2660 3873
2660 3924
2660 4188
2660 4199
2660 4267
2660 4368
2660 4442
2660 4562
2660 4596
2660 4696
2660 4804
2660 5110
2660 5166
2660 5436
2660 5612
2660 5638
2660 5693
2660 5742
2660 5785
2660 5826
2660 5887
2660 5914
2660 6032
2660 6082
2660 6110
2660 6150
2660 6303
2660 6304
2660 6406
2660 6456
2660 6507
2660 6614
2660 6637
2660 6711
2660 6719
2660 6827
2660 7012
2660 7015
2660 7036
2660 7054
2660 7140
2660 7164
2660 7191
2660 7197
2660 7201
2660 7261
2660 7274
2660 7363
2660 7562
2660 7612
2660 7692
2660 7875
2660 7900
2660 7952
2660 8004
2660 8049
2660 8083
2660 8089
2660 8233
2661 6141
2661 7728
2662 7011
2662 7080
2662 7276
2662 7592
2663 5507
2664 3452
2664 3691
2665 4833
2665 5342
2666 3847
2666 4667
2666 5449
2666 7034
2667 5634
2668 3965
2668 4771
2668 5171
2668 6259
2669 3150
2669 3280
2669 3818
2669 3925
2669 3962
2669 3980
2669 3984
2669 4164
2669 4326
2669 4445
2669 4574
2669 4665
2669 4689
2669 4939
2669 5026
2669 5121
2669 5197
2669 5234
2669 5454
2669 5546
2669 6111
2669 6555
2669 7383
2670 2950
2670 4773
2670 5308
2670 6435
2670 6823
2672 6642
2673 4026
2673 5880
2676 3778
2677 2756
2678 6141
2679 5383
2679 7732
2679 8013
2680 2970
2680 3373
2680 6188
2681 2916
2681 3284
2681 3825
2681 3962
2681 4348
2681 4445
2681 4946
2681 5215
2681 5234
2681 5546
2681 5880
2681 6109
2681 6330
2681 6336
2681 6506
2681 6683
2681 6840
2681 7500
2681 7985
2682 7586
2683 2845
2683 3653
2683 6141
2685 4365
2686 4087
2687 2695
2687 2708
2687 2743
2687 2830
2687 2862
2687 2867
2687 2957
2687 2966
2687 3054
2687 3118
2687 3122
2687 3206
2687 3355
2687 3373
2687 3407
2687 3524
2687 3572
2687 3653
2687 3826
2687 3881
2687 3885
2687 3886
2687 4093
2687 4291
2687 4468
2687 4494
2687 4533
2687 4586
2687 4793
2687 4899
2687 4982
2687 5080
2687 5130
2687 5195
2687 5262
2687 5291
2687 5433
2687 5462
2687 5696
2687 5705
2687 5748
2687 5751
2687 5754
2687 5764
2687 5784
2687 5787
2687 6062
2687 6209
2687 6383
2687 6410
2687 6535
2687 6837
2687 6997
2687 7080
2687 7153
2687 7403
2687 7587
2687 7691
2687 7706
2687 7788
2687 7824
2687 7963
2687 7976
2687 8012
2687 8047
2687 8065
2687 8109
2687 8162
2687 8168
2689 2689
2690 3644
2690 4833
2690 6351
2690 6661
2691 3270
2691 4309
2691 4641
2691 6791
2692 3456
2692 5771
2692 6739
2693 3497
2695 2695
2695 3309
2695 4404
2696 7554
2697 6534
2698 3930
2698 5329
2698 5373
2699 3360
2699 3527
2699 7021
2700 3965
2700 6799
2700 6802
2700 7346
2700 7776
2701 7190
2702 2976
2702 3028
2702 3219
2702 3485
2702 3706
2702 3726
2702 3863
2702 4187
2702 4748
2702 4833
2702 5375
2702 6158
2702 6770
2702 6833
2702 7012
2704 3958
2704 6016
2704 6141
2704 6856
2704 7010
2704 7549
2704 7648
2705 7587
2706 3436
2707 5391
2708 2876
2708 3127
2708 3287
2708 3309
2708 3519
2708 3647
2708 3712
2708 3826
2708 4240
2708 4291
2708 4354
2708 4487
2708 4773
2708 4823
2708 4982
2708 5211
2708 5661
2708 6110
2708 6267
2708 6898
2708 6906
2708 7051
2708 7178
2708 7190
2708 7191
2708 7702
2708 7785
2708 7871
2708 8151
2709 4713
2710 5456
2710 6580
2711 2862
2711 7011
2711 7080
2711 7276
2711 8047
2711 8109
2711 8162
2712 3485
2712 3906
2712 7554
2713 2889
2713 4930
2713 7208
2714 3010
2714 3358
2714 3658
2714 4231
2714 4767
2714 5291
2714 6420
2714 7324
2714 7611
2715 2752
2715 2993
2715 3202
2715 3472
2715 3556
2715 3825
2715 3937
2715 3984
2715 4233
2715 4301
2715 4304
2715 4423
2715 4439
2715 4667
2715 4977
2715 5067
2715 5136
2715 5192
2715 5352
2715 5933
2715 6129
2715 6330
2715 6361
2715 6506
2715 6802
2715 7151
2715 7652
2715 7850
2715 8001
2715 8125
2716 3860
2716 3891
2716 6090
2716 7223
2717 4399
2718 7622
2719 3841
2720 2788
2720 4166
2720 4399
2720 4661
2720 4948
2720 5555
2720 5586
2720 6067
2720 7292
2721 3866
2722 2859
2722 3265
2723 2890
2723 4284
2723 5284
2726 4835
2726 6654
2727 2736
2727 3355
2727 3445
2727 3507
2727 3700
2727 4586
2727 5291
2727 5762
2727 6209
2727 6429
2727 6716
2728 6141
2729 4780
2731 7034
2731 7346
2733 4773
2733 5065
2733 7011
2733 7080
2733 7276
2733 7632
2733 7691
2733 8047
2733 8109
2733 8162
2734 6111
2735 7158
2736 2763
2736 3544
2736 5327
2736 5391
2736 6315
2737 5534
2737 7574
2738 3938
2738 5422
2740 6089
2741 6349
2742 2881
2742 3467
2742 3890
2742 3902
2742 4273
2742 4487
2742 5291
2742 5661
2742 5764
2742 6077
2742 6377
2742 6946
2742 7292
2742 7398
2742 7467
2742 7485
2742 7562
2742 8134
2743 2759
2743 2935
2743 3053
2743 3210
2743 3543
2743 3565
2743 4399
2743 4487
2743 4519
2743 5040
2743 5129
2743 5141
2743 5486
2743 6165
2743 6319
2743 6544
2743 6898
2743 6919
2743 7178
2743 7241
2743 7349
2743 7562
2743 7652
2743 8103
2743 8158
2744 2957
2744 3355
2744 3944
2744 4586
2744 5291
2744 6535
2744 7047
2746 4712
2746 4736
2746 5046
2746 5697
2746 6383
2746 6621
2746 6795
2749 6176
2750 8170
2751 3950
2751 4543
2751 6815
2751 6883
2751 6967
2751 7011
2751 7080
2751 7217
2751 7265
2751 7276
2751 7822
2751 7824
2751 8109
2751 8162
2752 3043
2752 3202
2752 3475
2752 3654
2752 4384
2752 4387
2752 4458
2752 4781
2752 5290
2752 5385
2752 5518
2752 5569
2752 6059
2752 6258
2752 6988
2752 7031
2752 7032
2752 7772
2752 8208
2752 8252
2753 3259
2753 3775
2753 3826
2753 4376
2753 4435
2753 5108
2753 6080
2753 6369
2753 6377
2753 7148
2753 7158
2753 7160
2753 7259
2753 7322
2753 7667
2753 8134
2755 2898
2755 3399
2756 3634
2756 3873
2756 5108
2756 5336
2756 5709
2756 6748
2756 7190
2756 7191
2756 7401
2756 8091
2756 8199
2757 7564
2759 2835
2759 2970
2759 2987
2759 3103
2759 3107
2759 3125
2759 3181
2759 3271
2759 3298
2759 3355
2759 3356
2759 3373
2759 3377
2759 3410
2759 3446
2759 3457
2759 3499
2759 3507
2759 3522
2759 3528
2759 3544
2759 3627
2759 3634
2759 3669
2759 3900
2759 3979
2759 4232
2759 4233
2759 4368
2759 4409
2759 4468
2759 4482
2759 4526
2759 4596
2759 4653
2759 4685
2759 4693
2759 4710
2759 4739
2759 4804
2759 4992
2759 5046
2759 5084
2759 5098
2759 5112
2759 5243
2759 5295
2759 5306
2759 5336
2759 5344
2759 5379
2759 5411
2759 5483
2759 5484
2759 5559
2759 5661
2759 5696
2759 5697
2759 5751
2759 5762
2759 5830
2759 5854
2759 5887
2759 5953
2759 5988
2759 5997
2759 6080
2759 6125
2759 6145
2759 6208
2759 6266
2759 6276
2759 6335
2759 6337
2759 6352
2759 6383
2759 6393
2759 6558
2759 6596
2759 6621
2759 6879
2759 6891
2759 6917
2759 6925
2759 6929
2759 7012
2759 7032
2759 7055
2759 7212
2759 7214
2759 7281
2759 7292
2759 7360
2759 7363
2759 7561
2759 7562
2759 7694
2759 7722
2759 7771
2759 8089
2759 8151
2759 8262
2760 5098
2760 5171
2762 2773
2762 3440
2762 3826
2762 5701
2762 7549
2762 7709
2763 3218
2763 4560
2763 5075
2763 5665
2763 5917
2763 6685
2763 7372
2763 7961
2763 8139
2764 3831
2764 4780
2765 6053
2766 5034
2766 5861
2766 6407
2766 8013
2767 3122
2767 3407
2767 3581
2767 3820
2767 4187
2767 4356
2767 5785
2767 5914
2767 5929
2767 6208
2767 6494
2767 6587
2767 6647
2767 6735
2767 6943
2767 6944
2767 7390
2767 7491
2767 7691
2767 7719
2767 7759
2767 7794
2767 7941
2767 8004
2768 2859
2768 3019
2768 3067
2768 3132
2768 3691
2768 4007
2768 4073
2768 4416
2768 5253
2768 5835
2768 6874
2768 7385
2768 8067
2768 8070
2769 3225
2769 7438
2769 8123
2770 7822
2771 4399
2771 5617
2771 6543
2771 7937
2772 3739
2772 4566
2772 7276
2772 7429
2773 3206
2773 3497
2773 7788
2774 7162
2775 2775
2775 3405
2776 2957
2776 5273
2776 6632
2776 7360
2777 3427
2777 4713
2777 5133
2777 5706
2777 5832
2777 6496
2777 6866
2777 6907
2777 7614
2777 7637
2777 7736
2779 6685
2779 7047
2779 8139
2780 2967
2780 2983
2780 4108
2780 4702
2780 4788
2780 5370
2780 5647
2780 6625
2780 7034
2781 6379
2782 3377
2782 3653
2782 5924
2782 6621
2782 7208
2782 7486
2783 2867
2783 2957
2783 4399
2783 5065
2783 5273
2783 7276
2783 7360
2783 7663
2783 7750
2783 7843
2783 7898
2783 8006
2783 8109
2783 8162
2784 6812
2785 6632
2786 3309
2786 4399
2787 2889
2787 6372
2787 7235
2787 7276
2788 3030
2788 3389
2788 6067
2788 6870
2789 3440
2790 7881
2792 5824
2793 4481
2795 3280
2795 3408
2795 3586
2795 3645
2795 3818
2795 3980
2795 4464
2795 4665
2795 4939
2795 5674
2795 5814
2795 6496
2795 6533
2795 6723
2795 7529
2795 7727
2796 3058
2796 6014
2797 5515
2797 6372
2799 5308
2799 6612
2799 7574
2799 7788
2800 4773
2801 7587
2802 3494
2802 3592
2802 4101
2802 5593
2802 5760
2802 6082
2802 6184
2802 6406
2802 6591
2802 7589
2802 7855
2802 7898
2804 2804
2804 2957
2804 3684
2804 4040
2804 4356
2804 4586
2804 4654
2804 4909
2804 5273
2804 5750
2804 5753
2804 6930
2804 7011
2804 7080
2804 7088
2804 7143
2804 7190
2804 7276
2804 7387
2804 7591
2804 7592
2804 7632
2804 7683
2804 7684
2804 7719
2804 7720
2804 7817
2804 7819
2804 7824
2804 7927
2804 7941
2804 7999
2804 8047
2804 8109
2804 8162
2804 8170
2805 3322
2805 3410
2805 4291
2805 4404
2805 4793
2805 5329
2805 5462
2805 5638
2805 5816
2805 6621
2805 6896
2805 7015
2805 7029
2805 7268
2805 8013
2805 8187
2806 3353
2806 4588
2806 4655
2806 4982
2806 5367
2806 5707
2806 6220
2806 6248
2806 6696
2806 7190
2806 7391
2806 7473
2807 2869
2809 3087
2809 3593
2809 4294
2809 4883
2809 4902
2809 5110
2809 5346
2809 5391
2809 5404
2809 5729
2809 6270
2809 6374
2809 6791
2809 7848
2810 2810
2810 5068
2811 5973
2812 4094
2813 6496
2814 3087
2814 7034
2815 3373
2815 7276
2816 6259
2817 2876
2817 3468
2817 4086
2817 4101
2817 4268
2817 4654
2817 6184
2817 7554
2818 6116
2818 6270
2819 3751
2819 4249
2819 4929
2819 5627
2819 6155
2819 7332
2819 7800
2821 5726
2821 5951
2821 6843
2821 6954
2821 7181
2821 7929
2822 5802
2822 6110
2823 2823
2823 3373
2823 3700
2823 3873
2823 4187
2823 4399
2823 4578
2823 4712
2823 5291
2823 5296
2823 5342
2823 5562
2823 5748
2823 5749
2823 5754
2823 5762
2823 6069
2823 6158
2823 6162
2823 6315
2823 7191
2823 7237
2823 7292
2823 7788
2823 7834
2823 8234
2826 3823
2828 3629
2828 4869
2828 5130
2828 5291
2828 5346
2828 7587
2829 3954
2830 2830
2830 3309
2830 3826
2830 4481
2830 6158
2830 6407
2830 6525
2833 4723
2834 2834
2834 3085
2834 3250
2834 3286
2834 3366
2834 3930
2834 4399
2834 4682
2834 5490
2834 6269
2834 6374
2834 6435
2834 7180
2834 7504
2834 7525
2834 8004
2835 3392
2835 3627
2835 3653
2835 4399
2835 4702
2835 5084
2835 7562
2836 6900
2837 5130
2838 3030
2838 3414
2838 6647
2839 4663
2839 5291
2839 5472
2839 5859
2839 6067
2839 6372
2839 6596
2839 7292
2839 7587
2840 5414
2841 3092
2841 3451
2841 3825
2841 4226
2841 4464
2841 4715
2841 4866
2841 4871
2841 5880
2841 6466
2841 6799
2841 6840
2841 7318
2842 7226
2843 3657
2843 7524
2844 3309
2844 3805
2844 5918
2845 2845
2845 2869
2845 3778
2845 4331
2845 4399
2845 4432
2845 4654
2845 6187
2845 6274
2845 6464
2845 6713
2845 6770
2845 6792
2845 7625
2846 8142
2847 4445
2847 5234
2847 5546
2847 5674
2847 5880
2847 7751
2848 3176
2848 4317
2848 4525
2848 5186
2848 5790
2848 6159
2848 6177
2848 7381
2848 7587
2848 8220
2849 3202
2849 3995
2851 5291
2851 5346
2851 6943
2851 6946
2851 7188
2851 7596
2851 7597
2851 7857
2851 7870
2851 7897
2852 5973
2853 3355
2853 3408
2853 3897
2853 5148
2853 5368
2853 6071
2853 6455
2853 6877
2853 7523
2853 7529
2853 7574
2853 8117
2854 3253
2854 4247
2854 7562
2855 7776
2856 3544
2857 3926
2858 3092
2858 3280
2858 3925
2858 4084
2858 4164
2858 4445
2858 4794
2858 4866
2858 4977
2858 5712
2858 5880
2858 6381
2858 6802
2858 7500
2859 2935
2859 3265
2859 3488
2859 3629
2859 3820
2859 4144
2859 4166
2859 4191
2859 4416
2859 4475
2859 5253
2859 5281
2859 5294
2859 5383
2859 6154
2859 6372
2859 6545
2859 6587
2859 6625
2859 6735
2859 6938
2859 6939
2859 6943
2859 6944
2859 6946
2859 7044
2859 7321
2859 7596
2859 7597
2859 7822
2859 7857
2859 7869
2859 7870
2859 7897
2859 7998
2859 8197
2860 4051
2860 4235
2861 8049
2862 2882
2862 2887
2862 2918
2862 2928
2862 2938
2862 2970
2862 2972
2862 2977
2862 2987
2862 3000
2862 3042
2862 3057
2862 3063
2862 3103
2862 3118
2862 3126
2862 3172
2862 3193
2862 3210
2862 3270
2862 3271
2862 3275
2862 3281
2862 3325
2862 3373
2862 3377
2862 3428
2862 3446
2862 3452
2862 3457
2862 3528
2862 3575
2862 3627
2862 3644
2862 3724
2862 3763
2862 3826
2862 3857
2862 3860
2862 3873
2862 3924
2862 3930
2862 3967
2862 3969
2862 3979
2862 3983
2862 4007
2862 4144
2862 4223
2862 4356
2862 4377
2862 4424
2862 4429
2862 4475
2862 4515
2862 4526
2862 4546
2862 4557
2862 4565
2862 4580
2862 4679
2862 4696
2862 4710
2862 4725
2862 4793
2862 4803
2862 4804
2862 4808
2862 4812
2862 4834
2862 4902
2862 4929
2862 4949
2862 4975
2862 4983
2862 4991
2862 4992
2862 5004
2862 5046
2862 5110
2862 5135
2862 5187
2862 5243
2862 5262
2862 5306
2862 5308
2862 5323
2862 5327
2862 5329
2862 5342
2862 5365
2862 5366
2862 5393
2862 5405
2862 5422
2862 5483
2862 5486
2862 5505
2862 5521
2862 5658
2862 5659
2862 5660
2862 5661
2862 5662
2862 5668
2862 5669
2862 5676
2862 5691
2862 5757
2862 5758
2862 5786
2862 5802
2862 5816
2862 5856
2862 5864
2862 5871
2862 5887
2862 6000
2862 6048
2862 6145
2862 6187
2862 6266
2862 6328
2862 6352
2862 6375
2862 6383
2862 6404
2862 6420
2862 6465
2862 6485
2862 6489
2862 6579
2862 6690
2862 6711
2862 6713
2862 6715
2862 6739
2862 6791
2862 6817
2862 6829
2862 6874
2862 6896
2862 6908
2862 6946
2862 6996
2862 7032
2862 7060
2862 7064
2862 7075
2862 7165
2862 7197
2862 7214
2862 7233
2862 7276
2862 7281
2862 7297
2862 7305
2862 7321
2862 7369
2862 7398
2862 7478
2862 7562
2862 7630
2862 7631
2862 7634
2862 7662
2862 7692
2862 7706
2862 7754
2862 7773
2862 7785
2862 7822
2862 7875
2862 7969
2862 7998
2862 8004
2862 8031
2862 8123
2862 8159
2862 8168
2862 8179
2862 8260
2863 2938
2863 3126
2863 3165
2863 3275
2863 3281
2863 3356
2863 3392
2863 3448
2863 3457
2863 3627
2863 3644
2863 3873
2863 3979
2863 4526
2863 4679
2863 4804
2863 4960
2863 5365
2863 5366
2863 5388
2863 5391
2863 5484
2863 5571
2863 5658
2863 5659
2863 5660
2863 5661
2863 5662
2863 5667
2863 5671
2863 5676
2863 5887
2863 5903
2863 6023
2863 6069
2863 6188
2863 6791
2863 6800
2863 6817
2863 6896
2863 7032
2863 7117
2863 7190
2863 7276
2863 7478
2864 2885
2864 3404
2864 4586
2864 7015
2864 7153
2864 7276
2864 7587
2866 2889
2866 3504
2866 3657
2866 5273
2866 6141
2866 6391
2866 6424
2866 7012
2866 7524
2867 2969
2867 3057
2867 3935
2867 4756
2867 5065
2867 5484
2867 5501
2867 6082
2867 6110
2867 6165
2867 6186
2867 6344
2867 6464
2867 6806
2867 7571
2867 7692
2867 7937
2867 8089
2869 2935
2869 3022
2869 3185
2869 3288
2869 3292
2869 3317
2869 3355
2869 3411
2869 3463
2869 3486
2869 3507
2869 3574
2869 3684
2869 3826
2869 3871
2869 3880
2869 3895
2869 3919
2869 3957
2869 4018
2869 4356
2869 4360
2869 4489
2869 4519
2869 4545
2869 4568
2869 4639
2869 4640
2869 4661
2869 4723
2869 4770
2869 4773
2869 4909
2869 4943
2869 4966
2869 4974
2869 5071
2869 5130
2869 5212
2869 5262
2869 5291
2869 5335
2869 5348
2869 5407
2869 5517
2869 5533
2869 5757
2869 5874
2869 6401
2869 6464
2869 6511
2869 6716
2869 6748
2869 6807
2869 6930
2869 6976
2869 7011
2869 7072
2869 7080
2869 7083
2869 7133
2869 7235
2869 7276
2869 7360
2869 7387
2869 7473
2869 7564
2869 7591
2869 7592
2869 7684
2869 7687
2869 7720
2869 7740
2869 7766
2869 7817
2869 7824
2869 7831
2869 7926
2869 7927
2869 7981
2869 8047
2869 8071
2869 8152
2869 8170
2870 3089
2871 3592
2871 5569
2871 7276
2873 6836
2873 7268
2874 6977
2874 7208
2874 7732
2876 2876
2876 3485
2876 3488
2876 3544
2876 3627
2876 3703
2876 3726
2876 3889
2876 3930
2876 4101
2876 4224
2876 4331
2876 4399
2876 4513
2876 4692
2876 4945
2876 4957
2876 5074
2876 5108
2876 5183
2876 5348
2876 5785
2876 6082
2876 6158
2876 6194
2876 6208
2876 6247
2876 6355
2876 6591
2876 6627
2876 6730
2876 6991
2876 7268
2876 7281
2876 7358
2876 7588
2876 7589
2876 7596
2876 7597
2876 7694
2876 7857
2876 7870
2876 7896
2876 7897
2876 8142
2877 2956
2877 7788
2879 7190
2881 2957
2881 3530
2881 4064
2881 4093
2881 4793
2881 4804
2881 4992
2881 5046
2881 5273
2881 5383
2881 5392
2881 5598
2881 5953
2881 6024
2881 7011
2881 7015
2881 7360
2881 7632
2881 7732
2881 7927
2882 3684
2882 7011
2882 7276
2882 8109
2882 8162
2883 3930
2884 7190
2884 7217
2885 2885
2885 2919
2885 3149
2885 3577
2885 4271
2885 4833
2885 6161
2885 6280
2885 6391
2885 7574
2885 8179
2886 5046
2887 6939
2887 7276
2887 7689
2888 7711
2890 2890
2890 3306
2890 3309
2890 3965
2890 4773
2890 4960
2890 5098
2890 5171
2890 5284
2890 5291
2890 5587
2890 5749
2890 5883
2890 5894
2890 6240
2890 6259
2890 6280
2890 6696
2890 6697
2890 6714
2890 6915
2890 6925
2890 7160
2890 7448
2890 7694
2891 4081
2891 4399
2891 4578
2891 6110
2891 6158
2891 6428
2892 6141
2893 4654
2894 3021
2894 6103
2894 6145
2894 6791
2896 3573
2896 3644
2896 5346
2896 6357
2896 7748
2896 8266
2897 5824
2897 7605
2898 6722
2900 3937
2900 4304
2900 5284
2900 5678
2900 5894
2900 5956
2900 7698
2901 2957
2901 5921
2902 4272
2902 6315
2902 7346
2903 4712
2904 3015
2904 3232
2904 3409
2904 3580
2904 3651
2904 3818
2904 3836
2904 4148
2904 4207
2904 4326
2904 4348
2904 4450
2904 4977
2904 5009
2904 5066
2904 5121
2904 5197
2904 5233
2904 5454
2904 5507
2904 5546
2904 5726
2904 6111
2904 6218
2904 6336
2904 6506
2904 6563
2904 6683
2904 6689
2904 6752
2904 6785
2904 6802
2904 7144
2904 7332
2904 7383
2904 7569
2904 7727
2904 7747
2904 7851
2904 8124
2905 3306
2905 5549
2906 3995
2906 4445
2906 5788
2906 6109
2907 6524
2907 7207
2908 6388
2909 6408
2909 7011
2909 7391
2909 8109
2909 8162
2910 3716
2911 2957
2911 3679
2911 3684
2911 6930
2911 6939
2911 6943
2911 7011
2911 7080
2911 7276
2911 7491
2911 7591
2911 7592
2911 7632
2911 7684
2911 7689
2911 7691
2911 7720
2911 7817
2911 7824
2911 7927
2911 8003
2911 8109
2911 8162
2911 8170
2912 3142
2912 4158
2912 5617
2913 7520
2914 6347
2915 3309
2915 3360
2915 4773
2915 8151
2916 3318
2916 3751
2916 4085
2916 4714
2916 5164
2916 5290
2916 6468
2916 6739
2916 7122
2916 7125
2916 7705
2916 7890
2916 7974
2917 3409
2917 3451
2917 4348
2917 4445
2917 4516
2917 4794
2917 6799
2918 3700
2918 4166
2918 4397
2918 5391
2918 5424
2918 5515
2918 5525
2918 5762
2918 6573
2918 6587
2918 6625
2918 6735
2918 6939
2918 6971
2918 7072
2918 7079
2918 7276
2918 7680
2918 7687
2918 7689
2918 7691
2919 3124
2919 3355
2919 3602
2919 3897
2919 3996
2919 4499
2919 5080
2919 6352
2919 7781
2920 5874
2921 3104
2921 3306
2921 3456
2921 3747
2921 4398
2921 4968
2921 5171
2921 5478
2921 5601
2921 5610
2921 5817
2921 5831
2921 5858
2921 6053
2921 6163
2921 6381
2921 6867
2921 7090
2921 7391
2921 7698
2921 7727
2922 3407
2922 4286
2922 6347
2922 6779
2922 7275
2925 3012
2925 5342
2925 6651
2926 5566
2928 5147
2928 5885
2928 7011
2928 7276
2928 8109
2928 8162
2929 3141
2929 3287
2929 6323
2929 7083
2929 8152
2930 2930
2930 5308
2930 6743
2931 2931
2931 5026
2931 5171
2931 5252
2931 8085
2932 3929
2932 7758
2933 5816
2934 6705
2934 6941
2934 7276
2935 5536
2935 5874
2935 6253
2935 6407
2935 6408
2935 7385
2935 7625
2935 8142
2936 6275
2936 6685
2936 8139
2937 5309
2937 6073
2938 2957
2938 3126
2938 3130
2938 3202
2938 3497
2938 3881
2938 3895
2938 4412
2938 5749
2938 5762
2938 5874
2938 6209
2938 6632
2938 6634
2938 6651
2938 6939
2938 6946
2938 7011
2938 7088
2938 7186
2938 7264
2938 7292
2938 7360
2938 7516
2938 7587
2938 7592
2938 7684
2938 7691
2938 7720
2938 7927
2938 7939
2938 8109
2938 8162
2939 6424
2940 5726
2940 5824
2940 6224
2941 7346
2942 3520
2942 3826
2942 6943
2942 7190
2942 7276
2942 7321
2944 3860
2944 4720
2944 5467
2945 5417
2945 6648
2945 7062
2945 7273
2945 7301
2945 7493
2945 7495
2945 8186
2945 8189
2945 8198
2945 8206
2945 8210
2945 8238
2945 8246
2945 8258
2946 6162
2947 3132
2947 5515
2948 5042
2949 3342
2949 4189
2949 6614
2950 5200
2951 6736
2951 7076
2951 7346
2952 4249
2952 4950
2952 5498
2952 6739
2952 7290
2952 7412
2952 7733
2952 7890
2953 3125
2953 3391
2953 4586
2953 6017
2953 7212
2953 8099
2954 6281
2955 4797
2957 2970
2957 2977
2957 3050
2957 3057
2957 3103
2957 3152
2957 3210
2957 3309
2957 3315
2957 3356
2957 3368
2957 3446
2957 3528
2957 3530
2957 3575
2957 3627
2957 3644
2957 3726
2957 3846
2957 3863
2957 3873
2957 3924
2957 4173
2957 4187
2957 4188
2957 4199
2957 4368
2957 4385
2957 4399
2957 4429
2957 4515
2957 4519
2957 4562
2957 4594
2957 4596
2957 4608
2957 4653
2957 4696
2957 4712
2957 4723
2957 4739
2957 4804
2957 4967
2957 5046
2957 5061
2957 5110
2957 5135
2957 5246
2957 5308
2957 5315
2957 5329
2957 5333
2957 5375
2957 5393
2957 5416
2957 5436
2957 5484
2957 5486
2957 5606
2957 5612
2957 5638
2957 5661
2957 5691
2957 5741
2957 5742
2957 5785
2957 5802
2957 5854
2957 5887
2957 5914
2957 5953
2957 6028
2957 6032
2957 6034
2957 6082
2957 6110
2957 6148
2957 6165
2957 6208
2957 6304
2957 6341
2957 6367
2957 6375
2957 6406
2957 6412
2957 6454
2957 6456
2957 6465
2957 6507
2957 6528
2957 6651
2957 6708
2957 6711
2957 6719
2957 6763
2957 6810
2957 6827
2957 6887
2957 6953
2957 6990
2957 7032
2957 7036
2957 7054
2957 7079
2957 7191
2957 7197
2957 7203
2957 7219
2957 7223
2957 7232
2957 7261
2957 7274
2957 7281
2957 7297
2957 7315
2957 7338
2957 7349
2957 7363
2957 7406
2957 7515
2957 7562
2957 7692
2957 7900
2957 7937
2957 8016
2957 8031
2957 8049
2957 8083
2957 8089
2957 8123
2957 8158
2958 3089
2958 3944
2958 4189
2958 4583
2958 5404
2958 5763
2958 5950
2958 6069
2958 6972
2958 7015
2958 7161
2958 8191
2960 6036
2960 7090
2961 3373
2961 3530
2961 5927
2961 7281
2962 3984
2962 4511
2963 3202
2964 3645
2964 3818
2964 4164
2964 4348
2964 4667
2964 4964
2964 5020
2964 5066
2964 5086
2964 6019
2964 6111
2964 6381
2964 6498
2964 6845
2964 7144
2964 7332
2964 7911
2964 8113
2965 6656
2966 3004
2966 3166
2966 3356
2966 3448
2966 3485
2966 3544
2966 3636
2966 3644
2966 3873
2966 3924
2966 4236
2966 4313
2966 4399
2966 4653
2966 4706
2966 4804
2966 4833
2966 5046
2966 5152
2966 5200
2966 5393
2966 5484
2966 5555
2966 5802
2966 5830
2966 5953
2966 6076
2966 6137
2966 6160
2966 7032
2966 7180
2966 7281
2966 7562
2966 7634
2966 8089
2967 4278
2967 4303
2967 6443
2967 8111
2968 4052
2968 4929
2968 5726
2968 6004
2969 4315
2969 4916
2969 7190
2970 3048
2970 3463
2970 3524
2970 3831
2970 3995
2970 4431
2970 4586
2970 4639
2970 5168
2970 5211
2970 5336
2970 5342
2970 5408
2970 5505
2970 5642
2970 5661
2970 5748
2970 5762
2970 5790
2970 6125
2970 6162
2970 6328
2970 6383
2970 6535
2970 6573
2970 6628
2970 6685
2970 6842
2970 6939
2970 6951
2970 7011
2970 7167
2970 7212
2970 7237
2970 7276
2970 7473
2970 7532
2970 7630
2970 7684
2970 7687
2970 7691
2970 7720
2970 7822
2970 8036
2970 8137
2970 8139
2971 7034
2972 5772
2972 6628
2972 6685
2972 7276
2972 8137
2972 8139
2973 5080
2973 7781
2974 3468
2975 3537
2975 4399
2975 5102
2976 3552
2976 3700
2976 4294
2976 5291
2976 6162
2977 3206
2977 3684
2977 4356
2977 4640
2977 4644
2977 4852
2977 5291
2977 5383
2977 5660
2977 6287
2977 6383
2977 6705
2977 6735
2977 6784
2977 6874
2977 6938
2977 6939
2977 6946
2977 7011
2977 7276
2977 7281
2977 7360
2977 7395
2977 7576
2977 7587
2977 7591
2977 7689
2977 7691
2977 7719
2977 7824
2977 7935
2977 8047
2977 8109
2977 8162
2977 8170
2978 5762
2978 5885
2981 4481
2981 5026
2981 5549
2981 6111
2981 7412
2981 7676
2983 3089
2983 7034
2983 7394
2984 4653
2985 3034
2985 3373
2985 6365
2985 7610
2985 7959
2986 5991
2986 7346
2987 3355
2987 4773
2987 5308
2987 6141
2987 6685
2987 7161
2987 7217
2987 7252
2987 8139
2988 6077
2989 3309
2989 4578
2989 5638
2989 6374
2989 6428
2989 6443
2989 7520
2990 8074
2991 5507
2992 5404
2992 6270
2993 3352
2994 4780
2994 5994
2994 5998
2995 3280
2995 3580
2995 3918
2995 3925
2995 3984
2995 4148
2995 4348
2995 4516
2995 4843
2995 4977
2995 5233
2995 5234
2995 5454
2995 5507
2995 5546
2995 5552
2995 5788
2995 5880
2995 6111
2995 6381
2995 6785
2995 7332
2995 7727
2995 7747
2996 6747
2996 7191
2996 7482
2997 2997
2997 3555
2998 4366
2999 3080
2999 4321
2999 5670
2999 5804
2999 6472
3000 3175
3000 3603
3000 3710
3000 3758
3000 3884
3000 4145
3000 4150
3000 4221
3000 4464
3000 5800
3000 6496
3000 6939
3000 7276
3000 7456
3000 7632
3000 7927
3000 8109
3000 8162
3001 6523
3002 6634
3003 3388
3003 7633
3004 4586
3004 4869
3004 6383
3005 5622
3005 7937
3006 5762
3006 7360
3007 3107
3007 3804
3007 4586
3007 6535
3007 7292
3007 7360
3007 7648
3008 3008
3008 3580
3008 3651
3008 3662
3008 3810
3008 3818
3008 3925
3008 3980
3008 3984
3008 4056
3008 4164
3008 4387
3008 4439
3008 4445
3008 4450
3008 4561
3008 4715
3008 4977
3008 5066
3008 5078
3008 5192
3008 5197
3008 5338
3008 5352
3008 5454
3008 5622
3008 5706
3008 5726
3008 6002
3008 6111
3008 6381
3008 6506
3008 6519
3008 6683
3008 6689
3008 6752
3008 6802
3008 6907
3008 7048
3008 7144
3008 7332
3008 7383
3008 7851
3008 8050
3008 8175
3008 8255
3009 3778
3009 4715
3009 8142
3010 3572
3010 3976
3010 4218
3010 5529
3010 5802
3010 6067
3010 6870
3011 7040
3011 7127
3011 8223
3013 4426
3013 4755
3013 5419
3013 5462
3013 5491
3013 5816
3014 3894
3014 5327
3015 3079
3015 3089
3015 3280
3015 3688
3015 3884
3015 3925
3015 4326
3015 4348
3015 4511
3015 4891
3015 5197
3015 5563
3015 5653
3015 5726
3015 6019
3015 6038
3015 6216
3015 6218
3015 6356
3015 6414
3015 6835
3015 6846
3015 7045
3015 7727
3016 5854
3017 5922
3018 4586
3019 3528
3019 3969
3019 4064
3019 4144
3019 4475
3019 4604
3019 4654
3019 4945
3019 4976
3019 5212
3019 5253
3019 5517
3019 6372
3019 6625
3019 6654
3019 6705
3019 6735
3019 6747
3019 6939
3019 6946
3019 7012
3019 7535
3019 7596
3019 7597
3019 7824
3019 7857
3019 7870
3019 7897
3019 7998
3020 3202
3020 3280
3020 5026
3021 3448
3021 3634
3021 4356
3021 4623
3021 4984
3021 5050
3021 5370
3021 6573
3021 6685
3021 6690
3021 6735
3021 6816
3021 6937
3021 6938
3021 6939
3021 6941
3021 7011
3021 7214
3021 7381
3021 7398
3021 7561
3021 7691
3021 7773
3021 8139
3021 8267
3022 3281
3022 3309
3022 3407
3022 3485
3022 3529
3022 3537
3022 3644
3022 3867
3022 4029
3022 4291
3022 4399
3022 4491
3022 4712
3022 4804
3022 5046
3022 5051
3022 5566
3022 5953
3022 6208
3022 6456
3022 6507
3022 6793
3022 6870
3022 7406
3022 7555
3022 8123
3023 7080
3023 7276
3023 7650
3023 8047
3023 8109
3023 8162
3025 3129
3025 3280
3025 3662
3025 3818
3025 4326
3025 4445
3025 4516
3025 4939
3025 5026
3025 5197
3025 5221
3025 5396
3025 5454
3025 5507
3025 6183
3025 6381
3025 6689
3025 7553
3025 7727
3026 3026
3026 3027
3026 5485
3026 7714
3027 3027
3027 3883
3027 5485
3028 3530
3028 3944
3028 4654
3028 5291
3028 5526
3028 5618
3028 5761
3028 6162
3028 6916
3028 7281
3028 7587
3029 3107
3029 6270
3030 7487
3032 3725
3032 3795
3032 6199
3032 6580
3033 5995
3033 7046
3034 5130
3034 5308
3035 3280
3036 5308
3037 3504
3039 3393
3039 3884
3039 4052
3039 4085
3039 4150
3039 4221
3039 4249
3039 4485
3039 4714
3039 4929
3039 5162
3039 5456
3039 5498
3039 5641
3039 5680
3039 5726
3039 5824
3039 6163
3039 6248
3039 6299
3039 6399
3039 6486
3039 6496
3039 6623
3039 6724
3039 6752
3039 7412
3039 7621
3039 7646
3039 7868
3040 3865
3040 4348
3041 6632
3042 6634
3043 7850
3043 8125
3044 3044
3046 3202
3047 6523
3047 6779
3047 7346
3048 3236
3048 3891
3048 6090
3048 7406
3049 3826
3049 4982
3049 6388
3050 4351
3050 4586
3050 5291
3050 7360
3051 3280
3051 3825
3051 3962
3051 3980
3051 3984
3051 4348
3051 4445
3051 4977
3051 5113
3051 5546
3051 5941
3051 6683
3052 6424
3053 3364
3053 4586
3053 5291
3053 5406
3053 7562
3054 5449
3054 6352
3054 7012
3054 7217
3054 7292
3054 8023
3056 3056
3056 3309
3056 4266
3056 4545
3056 4578
3056 5216
3056 5745
3056 5764
3056 7204
3056 8058
3057 4040
3057 5065
3057 6141
3057 6930
3057 7011
3057 7080
3057 7276
3057 7360
3057 7591
3057 7592
3057 7632
3057 7687
3057 7689
3057 7824
3057 7999
3057 8047
3057 8109
3057 8162
3057 8170
3058 3060
3058 3461
3058 3651
3058 3751
3058 3816
3058 3925
3058 3933
3058 3984
3058 4085
3058 4164
3058 4507
3058 4614
3058 4627
3058 4689
3058 4946
3058 5067
3058 5271
3058 5297
3058 5546
3058 5678
3058 5824
3058 6248
3058 6381
3058 6389
3058 6398
3058 6432
3058 6452
3058 6954
3058 7181
3058 7332
3058 7391
3058 7751
3058 7889
3058 8062
3059 3530
3059 5763
3059 6372
3060 3426
3060 3603
3060 3751
3060 4370
3060 4705
3060 4714
3060 4814
3060 5095
3060 5456
3060 5498
3060 5657
3060 5824
3060 5843
3060 6262
3060 6389
3060 6580
3060 6843
3060 6954
3060 7045
3060 7159
3060 7605
3060 7621
3060 8015
3061 8255
3062 3089
3062 3118
3062 3974
3062 4093
3062 4773
3062 6996
3062 7034
3062 7555
3062 7964
3063 7514
3065 3468
3065 3726
3065 6355
3066 5291
3067 8200
3068 3352
3068 3944
3068 4100
3068 4101
3068 4399
3068 6022
3068 7457
3068 8142
3068 8144
3069 3069
3069 3118
3069 3127
3069 3859
3069 4187
3069 4800
3069 5275
3069 5419
3069 5606
3069 5612
3069 5638
3069 6008
3069 6456
3069 7292
3069 8031
3070 3697
3071 4654
3071 4655
3072 4399
3072 5885
3073 5772
3074 3751
3074 3984
3074 4085
3074 4249
3074 4574
3074 5824
3074 6739
3074 7332
3074 7605
3075 5296
3075 7292
3075 8214
3076 3284
3076 3451
3076 4348
3076 5020
3077 5095
3078 7292
3078 7592
3078 8109
3078 8162
3079 3089
3079 4146
3079 5678
3079 8124
3081 7646
3082 5399
3082 5586
3082 7775
3083 3280
3083 3825
3083 5674
3084 3873
3084 3909
3084 5887
3084 7210
3085 3867
3085 5216
3085 6780
3085 7788
3085 7896
3085 8142
3087 3309
3087 3465
3087 3507
3087 3774
3087 4394
3087 4617
3087 4773
3087 5406
3087 6311
3087 6358
3087 6367
3087 6393
3087 6455
3087 6477
3087 6716
3087 7212
3087 7287
3087 7292
3087 7871
3087 8188
3089 3270
3089 3292
3089 3442
3089 3568
3089 3679
3089 3740
3089 3756
3089 3995
3089 4114
3089 4325
3089 4328
3089 4349
3089 4500
3089 4577
3089 4658
3089 4712
3089 4924
3089 5019
3089 5144
3089 5324
3089 5347
3089 5370
3089 5479
3089 5736
3089 5815
3089 5844
3089 5885
3089 5951
3089 6065
3089 6167
3089 6189
3089 6257
3089 6381
3089 6521
3089 6525
3089 6625
3089 6685
3089 7034
3089 7079
3089 7088
3089 7138
3089 7249
3089 7284
3089 7312
3089 7381
3089 7558
3089 7563
3089 7564
3089 7603
3089 7685
3089 7796
3089 7833
3089 7850
3089 7863
3089 8005
3089 8024
3089 8029
3089 8121
3089 8124
3089 8125
3089 8139
3089 8153
3089 8174
3089 8235
3090 3866
3091 3760
3092 3133
3092 3273
3092 3563
3092 3750
3092 3884
3092 3904
3092 4443
3092 4599
3092 5038
3092 5456
3092 5468
3092 5639
3092 5674
3092 5726
3092 5773
3092 5867
3092 6185
3092 6288
3092 6414
3092 6715
3092 6866
3092 6935
3092 7125
3092 7132
3092 7284
3092 7393
3092 7394
3092 7498
3092 7545
3092 7733
3092 7929
3093 3093
3094 4115
3096 4545
3096 5713
3096 6791
3097 5594
3098 6160
3098 7188
3098 7596
3098 7597
3098 7857
3098 7870
3098 7897
3099 7080
3099 7632
3099 8109
3099 8162
3101 4114
3102 3280
3102 3331
3102 3580
3102 3825
3102 3925
3102 4148
3102 4326
3102 4977
3102 5066
3102 5197
3102 5233
3102 5234
3102 5352
3102 5622
3102 5674
3102 5726
3102 6002
3102 6111
3102 6183
3102 6218
3102 6683
3102 6802
3102 7290
3102 7500
3102 7985
3102 8255
3103 3355
3103 3524
3103 3530
3103 3544
3103 3852
3103 4127
3103 4227
3103 4477
3103 4586
3103 4639
3103 4872
3103 4956
3103 5273
3103 5308
3103 5340
3103 5386
3103 5660
3103 5751
3103 5761
3103 5762
3103 5997
3103 6125
3103 6141
3103 6287
3103 6347
3103 6352
3103 6779
3103 6891
3103 6900
3103 6915
3103 6925
3103 7160
3103 7275
3103 7360
3103 7610
3103 7627
3103 7694
3103 7840
3104 3280
3104 3510
3104 3580
3104 3651
3104 3662
3104 3818
3104 3918
3104 3925
3104 3984
3104 4148
3104 4164
3104 4348
3104 4464
3104 4507
3104 4516
3104 4574
3104 4689
3104 4722
3104 4939
3104 4977
3104 4998
3104 5009
3104 5020
3104 5066
3104 5067
3104 5121
3104 5136
3104 5169
3104 5197
3104 5234
3104 5338
3104 5345
3104 5378
3104 5454
3104 5507
3104 5552
3104 5674
3104 5880
3104 6111
3104 6129
3104 6211
3104 6330
3104 6398
3104 6414
3104 6498
3104 6506
3104 6567
3104 6683
3104 6742
3104 6840
3104 7003
3104 7045
3104 7100
3104 7144
3104 7332
3104 7747
3104 7809
3105 7034
3107 3210
3107 3298
3107 3452
3107 3544
3107 3726
3107 3924
3107 4187
3107 4188
3107 4368
3107 4482
3107 4803
3107 5004
3107 5056
3107 5110
3107 5262
3107 5329
3107 5366
3107 5408
3107 5571
3107 5697
3107 6080
3107 6162
3107 6188
3107 6406
3107 6433
3107 6530
3107 6557
3107 6770
3107 6842
3107 7208
3107 7277
3107 7562
3107 7578
3107 8031
3107 8089
3108 3216
3108 3277
3108 3906
3108 4496
3108 4907
3108 5536
3108 7596
3108 7597
3108 7656
3108 7857
3108 7870
3108 7897
3108 8106
3109 3451
3109 4164
3109 5622
3109 6802
3111 4291
3111 6096
3112 6165
3114 5297
3114 6218
3115 3115
3115 4399
3115 5004
3115 5594
3116 6388
3117 3463
3117 4586
3117 4804
3117 6634
3117 7281
3118 3118
3118 3209
3118 3373
3118 3507
3118 3544
3118 3644
3118 3684
3118 3917
3118 3940
3118 4279
3118 4354
3118 4360
3118 4399
3118 4431
3118 4623
3118 4661
3118 4706
3118 4736
3118 4741
3118 4832
3118 4863
3118 5004
3118 5126
3118 5138
3118 5276
3118 5332
3118 5342
3118 5365
3118 5397
3118 5586
3118 5661
3118 5696
3118 5802
3118 5859
3118 5869
3118 5946
3118 6022
3118 6050
3118 6110
3118 6114
3118 6443
3118 6477
3118 6517
3118 6530
3118 6535
3118 6656
3118 6694
3118 6716
3118 6808
3118 6836
3118 6898
3118 6997
3118 7022
3118 7079
3118 7091
3118 7153
3118 7164
3118 7188
3118 7190
3118 7235
3118 7281
3118 7292
3118 7346
3118 7438
3118 7451
3118 7463
3118 7491
3118 7871
3118 7938
3118 7960
3119 5874
3119 5902
3119 6634
3119 7483
3119 7694
3121 6218
3122 3530
3122 3863
3122 3873
3122 4442
3122 4712
3122 4723
3122 5386
3122 5562
3122 5661
3122 5748
3122 5758
3122 5762
3122 5785
3122 6069
3122 6456
3122 6925
3122 6929
3122 7190
3122 7960
3123 5824
3125 3704
3125 6022
3125 6080
3125 6791
3126 3891
3126 4565
3126 4751
3126 5566
3126 5748
3126 5749
3126 5751
3126 5762
3126 6145
3126 6891
3126 6925
3126 7237
3126 7264
3126 7276
3126 7292
3126 7592
3126 7593
3127 3974
3127 4661
3127 7190
3127 7292
3127 7303
3128 3700
3128 3895
3128 3902
3128 7072
3128 8109
3128 8162
3129 3747
3129 4814
3129 5171
3130 3575
3130 7423
3130 7515
3131 5363
3132 3661
3132 4166
3132 4191
3132 4475
3132 4641
3132 4770
3132 5106
3132 5253
3132 5835
3132 6625
3132 6654
3132 6705
3132 6735
3132 6939
3132 7072
3132 7188
3132 7235
3132 7596
3132 7597
3132 7839
3132 7857
3132 7870
3132 7897
3133 3561
3133 3662
3133 3665
3133 3733
3133 3825
3133 4026
3133 4439
3133 4714
3133 4715
3133 4977
3133 5008
3133 5066
3133 5121
3133 5192
3133 5507
3133 5600
3133 5614
3133 5807
3133 6330
3133 6689
3133 6802
3133 7144
3133 7332
3133 7569
3133 7727
3133 8001
3134 4043
3135 6290
3136 8109
3136 8162
3137 3202
3138 4586
3138 5753
3138 6573
3138 6654
3138 6735
3138 6939
3138 7080
3138 7244
3138 7276
3138 7689
3138 8047
3139 7689
3140 3232
3140 3280
3140 3637
3140 3948
3140 4284
3140 4792
3140 4939
3140 4960
3140 5284
3140 6381
3140 7801
3141 3530
3141 3811
3141 3867
3141 3873
3141 3924
3141 3979
3141 4064
3141 4368
3141 4431
3141 4513
3141 4578
3141 4778
3141 4804
3141 5110
3141 5472
3141 5661
3141 5709
3141 5727
3141 5785
3141 5914
3141 5953
3141 6101
3141 6110
3141 6269
3141 6632
3141 6793
3141 7087
3141 7214
3141 7406
3141 7562
3141 7656
3142 5792
3142 5950
3143 3373
3143 4158
3144 5953
3144 7406
3146 5824
3146 7605
3147 4533
3147 5291
3147 6382
3150 4464
3151 3280
3151 3984
3151 4445
3151 6330
3152 5346
3153 3280
3153 3925
3153 3984
3153 5197
3153 5245
3153 5552
3153 6414
3153 7500
3154 4182
3154 5291
3154 6120
3154 6141
3154 7592
3155 3155
3157 6654
3157 6939
3158 4093
3158 6779
3159 3393
3159 5880
3159 8216
3160 3280
3160 4714
3160 4950
3160 6321
3160 6867
3160 7733
3160 7800
3160 8053
3161 4772
3161 4836
3161 5215
3161 5363
3161 7800
3162 3902
3162 5383
3162 6734
3162 7022
3163 3823
3164 4353
3164 4956
3164 5291
3164 6537
3164 7561
3165 3289
3165 3467
3165 3524
3165 3871
3165 4071
3165 4103
3165 4639
3165 4706
3165 5107
3165 5291
3165 5762
3165 6141
3165 6898
3165 7047
3165 7235
3165 7561
3165 7587
3165 7680
3166 3700
3166 3890
3166 3957
3166 4087
3166 4368
3166 4778
3166 4956
3166 5075
3166 5166
3166 5244
3166 5257
3166 5262
3166 5291
3166 5315
3166 5408
3166 5472
3166 5709
3166 5763
3166 6651
3166 6763
3166 7281
3166 7562
3166 7564
3166 7607
3166 7900
3169 5106
3170 3609
3170 3944
3170 5291
3170 6801
3170 6836
3170 7610
3171 4586
3172 5997
3172 7360
3172 7694
3173 3530
3173 4196
3173 4434
3173 4696
3173 6315
3174 4026
3174 4875
3174 5271
3174 6063
3174 6840
3175 3409
3175 3925
3175 3937
3175 4348
3175 4667
3175 4977
3175 5066
3175 5507
3175 5725
3175 5880
3175 5933
3175 7144
3175 7318
3175 7500
3175 7506
3175 7552
3175 7747
3175 7957
3175 8001
3175 8113
3176 4525
3177 7373
3178 7882
3179 3280
3180 3965
3180 5171
3180 5678
3180 5956
3180 6259
3180 6779
3181 3530
3181 3841
3181 4680
3181 4682
3181 4992
3181 5105
3181 5241
3181 6388
3181 6791
3181 6792
3181 7012
3181 7562
3182 3309
3182 3867
3182 4594
3182 4793
3183 3373
3183 3448
3183 3530
3183 6080
3183 6557
3185 3912
3185 4158
3185 4578
3185 6090
3185 6270
3185 6440
3185 6928
3185 7265
3185 7934
3187 3860
3187 6709
3187 6833
3188 4176
3189 6104
3191 5564
3194 6739
3195 4094
3196 3580
3196 4477
3196 4722
3196 5171
3196 5674
3196 5762
3196 5956
3196 6259
3196 6658
3196 6853
3196 7347
3196 7391
3196 7453
3196 7500
3196 7535
3197 3572
3198 3309
3198 3313
3198 4363
3198 4399
3198 5884
3198 7616
3200 3501
3200 6048
3201 3280
3201 4445
3201 4689
3201 5066
3201 5192
3202 3202
3202 3280
3202 3531
3202 3654
3202 3786
3202 3793
3202 4027
3202 4078
3202 4212
3202 4384
3202 4546
3202 4716
3202 4994
3202 5133
3202 5284
3202 5361
3202 5512
3202 5518
3202 5569
3202 5756
3202 5923
3202 5947
3202 5952
3202 6160
3202 6258
3202 6321
3202 6905
3202 6988
3202 7031
3202 7032
3202 7037
3202 7553
3202 7612
3202 7772
3202 7955
3202 8022
3202 8167
3202 8208
3202 8268
3203 3824
3203 3826
3203 4009
3203 4533
3203 5075
3203 6244
3204 3684
3204 7276
3204 7689
3205 5507
3206 3210
3206 3358
3206 3414
3206 3575
3206 3860
3206 3924
3206 4039
3206 4723
3206 4804
3206 5015
3206 5110
3206 5415
3206 5484
3206 5638
3206 5738
3206 5802
3206 5830
3206 5854
3206 5887
3206 6008
3206 6011
3206 6082
3206 6110
3206 6325
3206 6406
3206 6827
3206 6988
3206 6990
3206 7032
3206 7191
3206 7334
3206 7799
3207 7873
3208 3216
3209 3691
3209 3729
3209 3767
3209 3804
3209 3899
3209 3995
3209 4166
3209 4360
3209 4416
3209 4586
3209 4604
3209 5126
3209 5642
3209 5874
3209 6542
3209 6625
3209 6654
3209 6874
3209 6915
3209 6946
3209 7011
3209 7047
3209 7190
3209 7360
3209 7541
3209 7587
3209 7592
3209 7596
3209 7597
3209 7734
3209 7788
3209 7839
3209 7840
3209 7857
3209 7870
3209 7897
3209 7976
3209 8036
3210 4455
3210 7360
3210 7587
3210 7592
3211 7346
3213 7012
3214 5454
3214 6739
3215 5738
3216 3216
3216 3935
3216 4584
3216 5593
3216 6165
3216 6315
3216 6379
3216 7855
3216 8106
3216 8213
3217 4586
3217 6621
3219 3507
3219 3835
3219 4222
3219 4346
3219 4358
3219 4420
3219 4572
3219 4586
3219 4661
3219 5218
3219 5469
3219 6285
3219 6393
3219 6721
3219 7191
3219 7421
3220 3254
3220 3544
3220 5084
3221 3582
3221 4291
3221 4641
3221 6407
3221 7276
3221 7596
3221 7597
3221 7848
3221 7857
3221 7870
3221 7897
3223 7011
3223 7403
3223 7824
3223 8109
3223 8162
3224 5249
3225 3826
3225 4420
3225 4644
3225 4773
3225 6260
3225 6756
3225 6873
3225 6995
3225 7190
3225 7362
3226 6281
3227 3373
3227 4399
3227 4513
3227 6391
3228 4617
3229 7011
3230 3280
3230 3409
3230 3768
3230 3818
3230 5381
3230 7553
3231 6791
3232 3260
3232 3672
3232 3965
3232 4425
3232 4485
3232 4658
3232 4680
3232 4722
3232 5171
3232 5234
3232 5284
3232 5546
3232 5678
3232 5695
3232 5807
3232 5894
3232 5956
3232 6003
3232 6248
3232 6259
3232 6696
3232 7090
3232 7500
3232 7772
3232 7850
3232 8107
3232 8125
3233 3294
3233 3356
3233 3373
3233 3966
3233 4189
3233 4216
3233 4296
3233 4723
3233 4768
3233 4855
3233 5065
3233 5216
3233 5541
3233 6162
3233 6485
3233 7515
3233 7562
3234 4249
3234 5957
3234 6259
3234 6843
3234 6867
3234 7097
3235 6387
3236 3826
3236 5329
3236 5336
3236 6347
3236 7178
3236 7694
3236 8120
3236 8138
3237 5445
3238 3965
3238 4722
3238 5171
3238 5674
3238 5956
3238 6259
3238 6696
3239 4586
3239 4654
3239 6791
3239 7451
3239 8123
3243 4713
3243 4868
3243 6323
3243 7055
3244 6163
3245 4513
3246 3442
3246 3523
3246 3634
3246 3847
3246 3880
3246 3937
3246 4014
3246 4409
3246 4477
3246 4519
3246 4586
3246 4953
3246 5108
3246 5709
3246 5946
3246 6082
3246 6251
3246 6267
3246 6477
3246 6685
3246 7185
3246 7235
3246 7404
3246 7473
3246 7561
3246 7615
3246 7648
3246 7742
3246 7832
3246 8139
3247 4399
3247 6209
3247 7360
3247 8025
3248 3618
3249 4714
3249 4773
3249 6651
3249 6836
3249 7190
3249 7191
3249 7217
3249 7373
3249 7840
3249 8099
3250 6067
3251 4347
3251 4399
3251 4793
3251 5539
3251 5927
3252 4594
3253 3467
3253 3530
3253 3700
3253 4087
3253 4586
3253 4838
3253 5762
3253 6656
3253 7047
3253 7191
3253 7840
3254 3618
3254 3859
3254 4437
3254 4654
3254 5237
3254 5764
3254 7292
3254 7587
3255 3497
3255 4351
3256 3309
3256 4860
3256 5108
3256 7172
3256 7242
3257 4842
3257 6028
3258 3891
3258 7438
3259 7949
3260 3580
3260 3818
3260 4667
3260 4850
3260 5026
3260 5197
3260 5251
3260 5454
3260 6258
3260 6381
3260 7456
3260 7727
3262 3281
3262 3793
3262 4143
3262 4811
3262 5329
3262 5802
3262 6829
3262 6928
3262 7649
3262 7829
3263 4708
3263 5080
3265 3270
3265 3564
3265 3820
3265 3979
3265 4109
3265 4144
3265 4166
3265 4416
3265 4475
3265 4641
3265 4833
3265 5383
3265 5391
3265 5670
3265 5816
3265 5835
3265 5874
3265 6097
3265 6590
3265 6625
3265 6791
3265 6943
3265 7091
3265 7186
3265 7188
3265 7281
3265 7525
3265 7839
3265 7986
3266 4618
3266 6672
3267 4770
3267 6573
3267 6654
3267 6939
3267 6946
3267 6951
3267 7011
3267 7276
3267 7491
3267 7686
3267 8197
3268 5772
3268 6349
3269 3456
3269 3751
3269 3904
3269 4485
3269 4814
3269 7412
3269 8015
3270 3522
3270 3871
3270 3902
3270 3924
3270 4166
3270 4223
3270 4230
3270 4356
3270 4475
3270 4623
3270 4696
3270 4734
3270 5126
3270 5279
3270 5383
3270 5391
3270 5405
3270 5422
3270 5451
3270 5559
3270 5757
3270 5905
3270 6257
3270 6573
3270 6635
3270 6685
3270 6938
3270 6939
3270 6941
3270 6943
3270 6951
3270 7011
3270 7072
3270 7188
3270 7190
3270 7287
3270 7321
3270 7689
3270 7732
3270 7935
3270 7998
3270 8071
3270 8110
3270 8114
3270 8139
3270 8197
3271 3392
3271 5391
3272 4056
3272 4419
3272 4445
3272 5271
3272 6109
3272 6111
3272 6284
3272 6389
3272 6506
3272 6540
3272 7332
3273 4439
3273 6689
3274 3826
3274 4696
3274 6631
3274 7217
3274 7491
3274 8008
3275 5166
3275 6925
3275 7252
3277 5046
3277 6550
3277 7029
3277 8144
3278 7190
3279 4356
3279 6573
3279 6976
3279 7190
3279 7688
3279 7817
3279 7822
3279 7824
3280 3280
3280 3427
3280 3438
3280 3538
3280 3596
3280 3600
3280 3723
3280 3725
3280 3747
3280 3750
3280 3833
3280 3925
3280 3965
3280 3984
3280 4052
3280 4059
3280 4145
3280 4150
3280 4155
3280 4212
3280 4383
3280 4445
3280 4463
3280 4511
3280 4551
3280 4573
3280 4588
3280 4599
3280 4601
3280 4613
3280 4652
3280 4686
3280 4714
3280 4715
3280 4731
3280 4814
3280 4952
3280 4977
3280 4994
3280 5026
3280 5038
3280 5136
3280 5171
3280 5197
3280 5234
3280 5240
3280 5266
3280 5444
3280 5498
3280 5518
3280 5601
3280 5602
3280 5610
3280 5632
3280 5643
3280 5646
3280 5678
3280 5680
3280 5706
3280 5726
3280 5771
3280 5788
3280 5800
3280 5814
3280 5828
3280 5832
3280 5858
3280 5894
3280 5945
3280 5951
3280 6004
3280 6014
3280 6053
3280 6054
3280 6111
3280 6129
3280 6155
3280 6172
3280 6207
3280 6224
3280 6230
3280 6237
3280 6258
3280 6268
3280 6299
3280 6321
3280 6361
3280 6489
3280 6496
3280 6563
3280 6659
3280 6696
3280 6714
3280 6724
3280 6751
3280 6907
3280 6948
3280 6949
3280 7003
3280 7020
3280 7090
3280 7098
3280 7126
3280 7187
3280 7272
3280 7372
3280 7376
3280 7383
3280 7448
3280 7453
3280 7454
3280 7456
3280 7496
3280 7545
3280 7553
3280 7605
3280 7637
3280 7678
3280 7681
3280 7698
3280 7705
3280 7722
3280 7727
3280 7738
3280 7767
3280 7772
3280 7776
3280 7850
3280 7886
3280 7974
3280 7991
3280 8053
3280 8073
3280 8116
3280 8124
3280 8125
3280 8205
3281 3281
3281 3317
3281 3467
3281 3507
3281 3545
3281 3574
3281 3679
3281 3793
3281 3891
3281 4100
3281 4545
3281 4661
3281 4706
3281 4804
3281 4894
3281 4974
3281 4997
3281 5088
3281 5126
3281 5265
3281 5592
3281 5631
3281 5709
3281 5906
3281 5953
3281 6017
3281 6090
3281 6110
3281 6339
3281 6573
3281 6622
3281 6651
3281 6754
3281 6763
3281 6874
3281 6897
3281 6924
3281 6939
3281 7011
3281 7072
3281 7080
3281 7154
3281 7190
3281 7197
3281 7244
3281 7264
3281 7276
3281 7401
3281 7491
3281 7516
3281 7638
3281 7670
3281 7688
3281 7689
3281 7759
3281 7838
3281 7960
3281 7963
3281 8044
3281 8068
3281 8099
3281 8105
3281 8109
3281 8162
3282 3355
3282 5661
3282 7360
3283 3342
3283 6530
3284 4052
3284 6468
3284 6623
3284 7824
3285 7208
3286 3286
3286 5404
3287 6347
3287 6383
3287 7196
3287 7204
3287 8058
3288 4586
3288 4966
3288 5291
3288 5342
3288 5449
3288 7091
3288 7244
3289 3653
3289 4093
3289 5802
3289 5874
3290 3456
3290 3825
3290 5020
3290 7727
3291 3291
3291 3539
3291 4496
3291 4758
3291 5738
3291 7182
3292 3891
3292 3930
3292 4144
3292 4223
3292 4641
3292 4696
3292 5854
3292 6096
3292 7161
3292 7346
3293 3331
3293 3580
3293 3662
3293 3818
3293 4464
3293 4511
3293 4849
3293 4875
3293 4977
3293 5066
3293 5121
3293 5234
3293 5507
3293 5546
3293 5674
3293 5809
3293 5839
3293 5926
3293 5933
3293 5951
3293 6031
3293 6336
3293 7100
3293 7704
3293 7727
3293 7985
3293 8255
3294 3373
3295 7394
3296 3456
3298 3377
3298 3924
3298 4189
3298 4403
3298 4442
3298 4477
3298 5336
3298 5391
3298 5816
3298 6110
3298 6347
3298 6535
3298 6685
3298 7047
3298 7212
3298 7406
3298 7707
3298 8139
3299 3618
3299 3661
3299 5526
3300 3951
3300 5072
3300 5348
3301 6538
3302 5729
3302 6053
3303 6259
3304 5876
3305 5273
3306 3825
3306 3965
3306 4425
3306 4673
3306 5171
3306 5291
3306 5369
3306 5695
3306 5894
3306 6129
3306 6211
3306 6248
3306 6259
3306 6658
3306 6696
3306 7040
3306 7127
3306 7276
3306 7383
3306 7448
3306 7632
3306 7684
3306 7720
3306 7747
3306 7822
3306 7901
3306 8109
3306 8130
3306 8162
3306 8170
3306 8223
3306 8255
3307 7346
3308 7091
3309 3309
3309 3355
3309 3364
3309 3557
3309 3726
3309 3739
3309 3774
3309 3792
3309 3827
3309 3841
3309 3852
3309 3885
3309 3944
3309 4003
3309 4100
3309 4101
3309 4151
3309 4168
3309 4217
3309 4224
3309 4253
3309 4255
3309 4509
3309 4529
3309 4566
3309 4572
3309 4580
3309 4585
3309 4586
3309 4598
3309 4656
3309 4694
3309 4715
3309 4861
3309 4897
3309 4899
3309 4963
3309 5006
3309 5062
3309 5108
3309 5127
3309 5171
3309 5195
3309 5344
3309 5370
3309 5404
3309 5433
3309 5437
3309 5462
3309 5535
3309 5567
3309 5586
3309 5609
3309 5647
3309 5678
3309 5803
3309 5858
3309 5937
3309 5965
3309 6053
3309 6067
3309 6101
3309 6114
3309 6116
3309 6157
3309 6209
3309 6226
3309 6248
3309 6287
3309 6334
3309 6343
3309 6347
3309 6350
3309 6379
3309 6409
3309 6415
3309 6477
3309 6535
3309 6627
3309 6634
3309 6645
3309 6666
3309 6739
3309 6929
3309 6933
3309 6940
3309 7026
3309 7029
3309 7095
3309 7141
3309 7217
3309 7243
3309 7328
3309 7388
3309 7391
3309 7418
3309 7429
3309 7453
3309 7509
3309 7677
3309 7685
3309 7784
3309 7788
3309 7819
3309 7824
3309 7878
3309 7926
3309 7939
3309 8047
3309 8141
3309 8143
3309 8148
3309 8217
3309 8239
3310 5449
3311 4423
3311 4875
3311 4977
3311 5791
3311 5880
3311 8001
3311 8038
3313 7167
3315 3315
3315 4778
3315 5342
3315 6162
3315 7264
3315 8013
3317 3793
3317 4223
3317 4641
3317 4696
3317 4734
3317 4793
3317 4991
3317 5329
3317 5383
3317 5451
3317 5816
3317 5871
3317 6090
3317 6096
3317 6145
3317 6587
3317 6791
3317 7281
3317 7478
3317 8123
3318 3510
3318 3611
3318 3662
3318 3818
3318 3836
3318 3925
3318 4164
3318 4348
3318 4439
3318 4445
3318 4464
3318 4511
3318 4891
3318 4939
3318 5136
3318 5172
3318 5507
3318 5546
3318 5552
3318 5614
3318 5717
3318 5726
3318 6129
3318 6381
3318 6414
3318 6506
3318 7013
3318 7045
3318 7332
3318 7359
3318 7391
3318 7444
3318 7809
3321 3485
3322 3407
3322 4646
3322 5226
3322 6267
3322 7117
3322 7831
3323 6070
3324 5761
3325 3684
3325 3774
3325 4022
3325 4230
3325 4356
3325 5505
3325 5559
3325 5660
3325 5751
3325 7011
3325 7021
3325 7080
3325 7188
3325 7217
3325 7264
3325 7276
3325 7321
3325 7398
3325 7491
3325 7591
3325 7632
3325 7649
3325 7689
3325 7691
3325 7719
3325 7824
3325 7999
3325 8047
3325 8109
3325 8162
3325 8170
3326 4464
3326 5646
3326 6414
3326 6496
3326 6949
3327 4190
3328 3452
3329 4977
3329 5192
3329 6785
3330 5667
3330 6800
3330 8057
3331 3474
3331 3603
3331 3904
3331 4476
3331 5026
3331 5204
3331 5266
3331 5321
3331 7003
3331 7246
3331 7332
3331 7705
3332 5480
3332 6632
3332 7034
3332 7047
3332 7408
3333 4586
3334 7042
3334 7691
3336 4233
3336 4995
3336 6362
3337 3598
3338 3537
3338 3544
3338 4578
3338 6162
3339 3644
3340 3849
3340 6114
3340 7360
3341 4581
3341 5370
3342 3342
3342 3977
3342 4725
3342 5555
3343 6779
3344 5106
3345 7272
3345 7554
3349 7299
3350 3865
3351 6616
3352 3352
3352 3722
3352 4303
3352 4482
3352 4723
3352 5243
3352 5347
3352 6022
3352 7129
3352 7292
3354 3865
3354 7055
3355 3356
3355 3377
3355 3410
3355 3446
3355 3485
3355 3528
3355 3530
3355 3537
3355 3544
3355 3575
3355 3630
3355 3644
3355 3724
3355 3726
3355 3857
3355 3873
3355 3979
3355 4053
3355 4093
3355 4114
3355 4187
3355 4262
3355 4303
3355 4399
3355 4525
3355 4696
3355 4710
3355 4736
3355 4804
3355 5110
3355 5216
3355 5308
3355 5309
3355 5329
3355 5366
3355 5578
3355 5638
3355 5659
3355 5661
3355 5662
3355 5667
3355 5785
3355 5802
3355 5856
3355 5953
3355 5963
3355 6020
3355 6145
3355 6208
3355 6315
3355 6352
3355 6456
3355 6558
3355 6621
3355 6763
3355 6770
3355 6791
3355 6800
3355 6817
3355 6896
3355 7158
3355 7164
3355 7281
3355 7349
3355 7400
3355 7406
3355 7421
3355 7554
3355 7562
3355 7630
3355 7706
3355 7758
3355 8104
3355 8123
3355 8168
3355 8262
3356 3364
3356 3373
3356 3499
3356 4289
3356 4420
3356 4978
3356 5080
3356 5084
3356 5408
3356 5749
3356 5750
3356 5751
3356 5762
3356 5879
3356 5997
3356 6067
3356 6440
3356 6596
3356 6613
3356 6915
3356 7047
3356 7214
3356 7264
3356 7484
3356 7562
3356 7587
3356 7627
3356 7694
3356 7840
3357 6654
3357 7276
3357 8109
3357 8162
3358 4773
3358 5119
3358 5533
3358 5611
3358 6141
3358 6823
3358 7275
3358 7360
3358 7587
3358 7823
3359 7690
3360 3514
3360 3530
3360 4276
3360 4736
3360 5693
3360 5885
3360 5929
3360 5935
3360 6069
3360 6226
3360 6499
3360 7218
3360 7281
3360 7385
3360 7600
3360 7649
3360 7927
3360 8049
3362 3883
3362 6184
3362 7212
3363 4407
3364 3485
3364 3530
3364 3627
3364 3700
3364 3793
3364 3924
3364 4368
3364 4399
3364 4586
3364 4734
3364 5391
3364 5789
3364 5802
3364 5997
3364 6412
3364 6477
3364 6626
3364 6710
3364 6791
3364 7281
3364 7349
3364 7458
3364 7562
3367 5558
3367 6341
3367 6573
3367 6852
3367 7265
3367 7934
3368 3530
3368 4586
3368 5291
3368 5472
3368 6535
3368 6836
3368 7292
3369 5487
3369 5922
3370 3507
3370 6440
3371 7572
3372 5874
3372 8110
3373 3373
3373 3403
3373 3404
3373 3530
3373 3627
3373 3644
3373 3671
3373 3704
3373 3945
3373 3957
3373 4093
3373 4163
3373 4216
3373 4227
3373 4303
3373 4358
3373 4368
3373 4397
3373 4586
3373 4623
3373 4639
3373 4685
3373 4723
3373 4751
3373 4752
3373 4778
3373 4855
3373 4956
3373 4966
3373 4997
3373 5004
3373 5065
3373 5166
3373 5216
3373 5265
3373 5386
3373 5645
3373 5661
3373 5748
3373 5749
3373 5750
3373 5762
3373 5798
3373 5802
3373 5928
3373 5946
3373 6080
3373 6162
3373 6229
3373 6319
3373 6323
3373 6344
3373 6347
3373 6352
3373 6367
3373 6429
3373 6455
3373 6477
3373 6713
3373 6741
3373 6748
3373 6874
3373 6929
3373 6975
3373 6990
3373 7034
3373 7069
3373 7072
3373 7190
3373 7212
3373 7244
3373 7364
3373 7390
3373 7407
3373 7430
3373 7501
3373 7515
3373 7555
3373 7562
3373 7596
3373 7597
3373 7627
3373 7656
3373 7734
3373 7782
3373 7797
3373 7857
3373 7870
3373 7871
3373 7897
3373 8123
3373 8158
3374 5204
3374 7013
3374 7676
3375 6791
3375 7563
3376 7011
3377 3524
3377 3902
3377 4519
3377 4778
3377 4872
3377 4992
3377 5661
3377 5897
3377 5932
3377 6596
3377 6640
3377 7305
3377 7477
3380 5602
3380 6739
3380 7125
3380 8053
3381 3381
3381 3826
3381 4399
3381 5375
3381 6141
3381 6174
3381 7980
3382 4360
3382 5247
3382 7208
3384 3621
3384 5411
3385 6110
3385 6141
3385 7244
3387 7394
3388 4313
3388 5054
3388 6045
3388 6190
3388 6481
3388 7711
3389 6616
3391 4741
3391 7037
3392 3446
3392 3448
3392 3703
3392 4103
3392 4189
3392 4227
3392 4300
3392 5098
3392 5112
3392 5342
3392 5379
3392 5391
3392 5762
3392 6103
3392 6407
3392 6791
3392 6796
3392 7381
3392 7562
3392 7694
3393 3510
3393 3665
3393 3707
3393 4226
3393 4301
3393 4348
3393 4423
3393 4441
3393 4516
3393 4570
3393 4891
3393 5066
3393 5087
3393 5142
3393 5229
3393 5261
3393 5300
3393 5396
3393 5456
3393 5563
3393 5843
3393 5880
3393 6109
3393 6381
3393 6389
3393 6438
3393 6498
3393 6506
3393 6572
3393 6683
3393 6689
3393 6802
3393 7025
3393 7506
3393 7747
3393 7985
3394 4447
3395 5729
3395 6415
3395 6733
3396 4929
3396 4977
3396 5622
3398 4336
3398 7447
3399 3399
3399 4878
3399 5291
3400 6588
3400 6627
3401 3401
3401 4399
3401 5715
3403 4291
3403 5953
3404 3724
3404 3820
3404 3888
3404 4275
3404 4289
3404 4704
3404 6229
3404 6402
3404 7064
3404 7815
3405 4460
3405 6186
3405 6793
3406 7276
3407 3463
3407 3684
3407 3846
3407 4022
3407 4057
3407 4114
3407 4356
3407 4373
3407 4543
3407 4629
3407 4812
3407 4877
3407 4943
3407 5150
3407 5265
3407 5308
3407 5416
3407 5729
3407 5972
3407 6393
3407 6613
3407 6634
3407 6685
3407 6938
3407 6946
3407 6965
3407 6970
3407 6976
3407 7011
3407 7028
3407 7080
3407 7164
3407 7265
3407 7276
3407 7287
3407 7292
3407 7491
3407 7649
3407 7687
3407 7688
3407 7759
3407 7791
3407 7817
3407 7819
3407 7927
3407 7935
3407 7999
3407 8003
3407 8012
3407 8139
3408 3438
3408 3456
3408 3751
3408 4115
3408 4705
3408 5617
3408 5740
3408 5877
3408 6496
3408 6543
3408 6767
3408 7605
3409 3418
3409 3904
3409 4146
3409 4443
3409 4705
3409 4714
3409 4950
3409 5095
3409 5507
3409 5610
3409 5627
3409 5771
3409 5933
3409 6014
3409 6113
3409 6563
3409 6954
3409 7181
3409 7394
3409 7448
3409 7646
3410 3826
3410 4773
3410 5210
3410 5237
3410 5397
3410 5856
3410 6110
3410 6401
3410 6865
3410 7244
3410 7564
3410 7788
3410 7976
3412 4254
3412 6603
3412 7034
3412 7160
3414 3580
3414 3849
3414 4239
3414 4539
3414 4571
3414 4646
3414 4745
3414 4778
3414 4826
3414 5044
3414 5396
3414 5446
3414 6529
3414 6711
3414 6809
3414 7231
3414 7810
3414 7907
3416 6259
3417 5728
3418 4150
3419 5874
3420 6493
3420 8112
3421 3944
3421 6082
3421 6535
3421 6694
3421 7011
3422 5007
3422 6880
3422 7034
3422 7346
3423 7900
3424 6939
3424 7276
3425 4028
3425 4249
3425 5824
3425 6033
3425 6224
3425 6349
3426 4977
3426 5546
3426 8255
3427 3580
3427 3925
3427 4445
3427 4511
3427 4732
3427 4934
3427 4964
3427 5026
3427 5197
3427 5233
3427 5454
3427 5546
3427 6111
3427 7727
3428 3881
3428 5308
3428 7011
3428 7217
3428 7264
3428 7276
3428 8109
3428 8162
3429 6759
3431 3553
3431 4395
3431 5515
3431 6052
3431 7329
3432 3456
3432 4249
3432 7034
3436 6493
3436 8112
3437 4356
3437 6939
3437 6976
3437 7011
3437 7080
3437 7276
3437 7491
3437 7591
3437 7592
3437 7632
3437 7638
3437 7651
3437 7684
3437 7687
3437 7689
3437 7691
3437 7720
3437 7759
3437 7822
3437 7824
3437 7927
3437 7999
3437 8003
3437 8047
3437 8109
3437 8162
3437 8170
3438 3451
3438 3980
3438 3994
3438 4164
3438 4248
3438 4445
3438 4511
3438 4614
3438 4638
3438 4667
3438 4939
3438 4977
3438 5234
3438 5396
3438 5454
3438 5563
3438 5674
3438 6330
3438 6361
3438 6432
3438 6480
3438 6835
3438 7100
3440 4878
3440 5701
3440 6515
3440 6836
3441 4712
3441 6407
3442 7034
3443 4489
3444 3444
3445 7926
3446 3524
3446 3618
3446 3653
3446 4300
3446 4303
3446 4623
3446 4661
3446 5262
3446 5386
3446 5661
3446 5696
3446 5748
3446 5816
3446 5997
3446 6280
3446 6383
3446 6577
3446 6632
3446 6734
3446 6874
3446 6925
3446 7079
3446 7264
3446 7477
3446 8004
3446 8149
3448 4513
3448 4582
3448 5098
3448 5762
3448 5988
3448 7034
3451 3456
3451 3533
3451 3662
3451 3750
3451 3818
3451 3937
3451 4147
3451 4348
3451 4418
3451 4445
3451 4464
3451 4511
3451 4512
3451 5113
3451 5136
3451 5164
3451 5197
3451 5311
3451 5352
3451 5507
3451 5549
3451 5639
3451 5740
3451 5831
3451 6111
3451 6519
3451 6739
3451 6843
3451 6949
3451 7318
3451 7605
3451 7676
3451 7729
3451 8205
3451 8216
3452 3463
3452 3499
3452 3634
3452 3644
3452 4100
3452 4103
3452 4360
3452 4397
3452 4451
3452 4525
3452 4623
3452 4639
3452 4681
3452 4718
3452 4721
3452 4762
3452 4773
3452 5112
3452 5126
3452 5150
3452 5214
3452 5225
3452 5295
3452 5331
3452 5336
3452 5445
3452 5449
3452 5694
3452 5709
3452 5762
3452 5917
3452 5977
3452 6073
3452 6103
3452 6261
3452 6280
3452 6685
3452 6779
3452 6891
3452 7034
3452 7117
3452 7172
3452 7190
3452 7278
3452 7287
3452 7360
3452 7424
3452 7477
3452 7592
3452 7604
3452 7644
3452 7694
3452 7771
3452 8020
3452 8068
3452 8139
3453 3453
3453 5058
3453 5785
3453 5886
3453 6208
3453 6421
3453 7299
3454 5762
3455 3694
3455 3826
3455 3855
3455 4164
3455 4722
3455 5039
3455 5171
3455 5678
3455 6053
3455 6259
3455 6270
3455 6375
3455 6696
3455 6874
3455 7250
3455 7376
3455 7453
3455 7524
3456 3650
3456 3892
3456 3925
3456 3933
3456 3980
3456 4056
3456 4060
3456 4248
3456 4445
3456 4478
3456 4671
3456 4683
3456 4763
3456 4977
3456 4998
3456 5038
3456 5197
3456 5324
3456 5371
3456 5460
3456 5552
3456 5632
3456 5692
3456 5933
3456 6234
3456 6381
3456 6392
3456 6728
3456 7159
3456 7500
3456 7727
3456 7741
3456 8113
3457 5386
3457 5748
3457 5749
3457 5751
3457 5762
3457 5988
3457 6891
3457 6925
3457 7264
3457 7592
3457 7593
3458 4538
3459 7034
3460 5678
3460 6053
3460 6248
3461 6248
3461 8062
3462 3462
3462 6915
3463 3523
3463 3774
3463 3860
3463 4399
3463 4579
3463 4623
3463 4723
3463 4793
3463 4804
3463 5004
3463 5046
3463 5422
3463 5569
3463 5764
3463 5802
3463 5990
3463 6145
3463 6383
3463 6407
3463 6440
3463 6651
3463 7091
3463 7235
3463 7275
3463 7281
3463 7555
3463 7578
3463 7782
3465 4158
3465 4279
3465 4578
3465 4723
3465 5830
3465 6791
3466 7888
3467 4399
3467 4586
3467 4706
3467 4712
3467 4736
3467 5594
3467 6634
3467 7015
3467 7244
3467 7451
3468 3468
3468 3726
3468 3909
3468 4332
3468 4584
3468 4907
3468 5536
3468 6056
3468 6226
3468 6536
3468 6993
3468 7012
3468 7162
3468 7184
3468 7197
3468 7358
3468 7656
3468 7682
3468 8051
3468 8213
3469 4297
3470 4157
3471 7080
3471 7276
3472 4900
3472 7181
3472 7332
3472 7393
3472 7705
3473 3905
3473 4101
3473 6836
3473 7367
3474 4773
3474 4843
3474 4899
3474 7025
3474 7030
3474 7694
3474 8232
3475 3654
3475 4457
3475 5171
3475 5695
3475 5814
3475 6141
3475 6248
3475 6259
3475 6361
3475 7391
3475 7453
3475 7772
3475 7850
3475 8125
3476 6739
3477 7100
3478 5244
3479 5342
3479 6939
3479 7276
3479 7491
3480 6133
3481 4717
3482 3891
3482 6077
3484 4200
3485 3507
3485 3530
3485 3544
3485 3867
3485 3921
3485 3944
3485 4093
3485 4586
3485 4655
3485 4907
3485 5108
3485 5291
3485 5308
3485 5372
3485 6141
3485 6194
3485 6243
3485 6267
3485 6493
3485 6535
3485 6719
3485 6801
3485 6853
3485 7012
3485 7015
3485 7254
3485 7352
3485 7360
3485 7473
3485 7483
3485 7840
3485 7960
3485 8112
3486 3581
3486 3886
3486 3892
3486 4114
3486 4131
3486 4784
3486 4892
3486 4953
3486 5296
3486 5462
3486 5729
3486 5927
3486 6147
3486 6229
3486 6249
3486 6332
3486 6513
3486 6661
3486 6908
3486 7023
3486 7761
3486 7892
3486 8115
3486 8123
3487 3487
3488 4144
3488 4191
3488 5564
3488 5594
3488 5986
3488 6654
3488 6946
3488 7276
3488 7554
3488 7596
3488 7597
3488 7687
3488 7688
3488 7822
3488 7857
3488 7870
3488 7897
3489 3539
3490 3998
3490 5996
3491 3733
3491 3937
3491 4059
3491 4301
3491 4348
3491 4429
3491 4588
3491 4977
3491 5009
3491 5106
3491 5234
3491 5309
3491 5545
3491 5791
3491 6053
3491 6094
3491 6111
3491 6129
3491 6163
3491 6396
3491 6419
3491 6683
3491 6696
3491 7151
3491 7246
3491 7500
3491 7506
3491 7698
3491 7727
3492 3866
3492 5092
3493 3719
3493 3778
3493 8142
3494 3957
3494 4199
3494 4538
3494 4654
3494 5348
3494 6082
3494 6591
3494 6705
3494 6735
3494 7011
3494 7235
3494 7276
3494 7360
3494 7684
3494 7720
3494 7998
3495 5682
3495 6943
3496 5511
3497 4187
3497 4216
3497 4586
3497 4696
3497 4804
3497 4878
3497 5802
3497 5854
3497 5887
3497 6082
3497 6110
3497 7012
3497 7032
3497 7281
3497 7656
3497 7692
3497 8129
3498 4233
3498 8141
3499 3499
3499 3530
3499 3826
3499 3976
3499 4012
3499 4399
3499 4604
3499 4623
3499 4804
3499 4945
3499 5216
3499 5366
3499 5750
3499 5830
3499 6048
3499 6161
3499 6243
3499 6375
3499 6463
3499 6713
3499 7563
3499 8083
3500 6000
3501 3501
3501 4644
3502 5774
3502 5916
3502 6477
3502 6975
3502 7562
3504 4223
3504 4347
3504 5900
3505 3505
3506 7257
3507 3653
3507 4093
3507 4578
3507 4586
3507 4654
3507 4723
3507 4846
3507 5065
3507 5216
3507 5274
3507 5373
3507 5462
3507 5594
3507 5764
3507 5830
3507 5854
3507 5885
3507 6145
3507 6158
3507 6162
3507 6208
3507 6383
3507 6388
3507 6621
3507 6709
3507 6791
3507 6793
3507 7055
3507 7208
3507 7281
3507 7463
3507 7555
3507 7562
3507 7704
3507 7706
3507 8168
3509 7553
3510 4950
3510 5627
3510 6496
3510 6704
3510 6739
3510 6935
3510 7605
3511 3823
3512 3691
3513 5054
3513 5379
3513 5982
3514 3713
3514 5098
3514 5106
3514 5308
3514 8151
3515 6757
3516 7090
3517 4052
3518 6415
3518 6733
3519 3992
3519 5566
3519 7761
3521 3580
3521 3818
3521 3825
3521 3925
3521 4248
3521 4348
3521 4445
3521 4511
3521 4939
3521 5026
3521 5066
3521 5171
3521 5197
3521 5352
3521 5518
3521 5552
3521 5601
3521 5674
3521 6025
3521 6129
3521 6271
3521 6326
3521 6696
3521 6728
3521 7318
3521 7332
3521 7529
3521 7727
3522 3793
3522 4696
3522 4991
3522 5422
3522 6383
3523 3979
3523 4712
3523 5329
3523 5854
3523 5862
3523 5885
3523 6124
3523 6145
3523 6162
3523 7555
3524 3530
3524 3544
3524 3627
3524 3857
3524 3863
3524 3924
3524 4723
3524 4804
3524 4992
3524 5034
3524 5046
3524 5110
3524 5612
3524 5638
3524 5693
3524 5802
3524 5953
3524 6110
3524 6352
3524 6423
3524 6584
3524 6791
3524 7164
3524 7268
3524 7349
3524 7562
3524 7616
3524 7937
3524 8004
3524 8012
3524 8049
3524 8089
3524 8243
3526 4654
3526 6833
3526 6976
3526 7011
3526 7042
3526 7276
3526 7632
3526 7684
3526 7720
3526 7794
3526 7817
3526 8047
3526 8170
3527 4642
3527 5406
3527 6875
3528 3661
3528 3951
3528 4036
3528 5084
3528 5291
3528 5411
3528 6194
3528 6267
3528 6352
3528 6656
3528 6784
3528 7360
3528 7587
3529 3788
3529 4773
3529 5562
3529 6211
3529 6656
3529 7217
3529 7587
3529 7724
3529 7734
3529 8151
3530 3530
3530 3575
3530 3590
3530 3634
3530 3849
3530 3891
3530 3902
3530 4187
3530 4234
3530 4347
3530 4486
3530 4489
3530 4519
3530 4572
3530 4586
3530 4594
3530 4661
3530 4680
3530 4778
3530 4800
3530 4804
3530 4833
3530 4945
3530 5015
3530 5046
3530 5084
3530 5110
3530 5138
3530 5262
3530 5291
3530 5317
3530 5450
3530 5472
3530 5638
3530 5661
3530 5662
3530 5709
3530 5749
3530 5751
3530 5761
3530 5802
3530 5854
3530 5946
3530 5953
3530 5997
3530 6080
3530 6110
3530 6118
3530 6347
3530 6375
3530 6383
3530 6456
3530 6517
3530 6558
3530 6613
3530 6616
3530 6763
3530 6793
3530 6800
3530 6864
3530 6891
3530 6896
3530 6925
3530 6929
3530 6938
3530 6946
3530 7015
3530 7096
3530 7164
3530 7191
3530 7264
3530 7268
3530 7274
3530 7281
3530 7292
3530 7305
3530 7467
3530 7477
3530 7522
3530 7562
3530 7630
3530 7775
3530 7788
3530 7840
3530 7878
3530 8089
3530 8123
3531 4513
3531 4685
3531 6779
3531 7275
3532 3580
3532 3733
3532 3980
3532 4445
3532 5173
3532 5454
3532 5546
3532 5563
3532 7383
3532 7747
3532 8255
3533 5551
3533 5602
3533 5877
3533 6271
3533 7221
3533 7929
3534 7034
3534 7369
3535 4646
3535 5316
3535 5446
3536 5212
3536 6634
3536 7167
3536 7276
3536 7596
3536 7597
3536 7857
3536 7870
3536 7897
3536 8123
3537 4773
3537 5108
3537 5222
3537 5397
3537 5661
3537 5859
3537 6393
3537 6995
3537 7161
3537 7190
3537 7788
3537 7968
3537 8145
3537 8151
3538 6414
3539 3539
3539 4399
3539 4496
3539 5232
3539 5375
3539 5738
3539 5869
3539 6550
3539 6906
3539 6995
3539 7182
3539 7234
3540 6777
3541 5764
3541 6226
3541 6791
3542 5953
3542 7406
3543 4477
3543 6779
3544 3609
3544 3630
3544 3726
3544 3778
3544 3804
3544 3867
3544 3890
3544 3957
3544 4057
3544 4101
3544 4187
3544 4368
3544 4586
3544 4778
3544 4795
3544 4804
3544 4992
3544 5046
3544 5110
3544 5216
3544 5257
3544 5291
3544 5370
3544 5462
3544 5637
3544 5638
3544 5654
3544 5678
3544 5704
3544 5749
3544 5762
3544 5763
3544 5764
3544 5785
3544 5856
3544 5927
3544 6101
3544 6110
3544 6158
3544 6267
3544 6280
3544 6343
3544 6375
3544 6388
3544 6454
3544 6456
3544 6632
3544 6801
3544 6925
3544 6929
3544 7015
3544 7079
3544 7164
3544 7212
3544 7276
3544 7467
3544 7473
3544 7483
3544 7520
3544 7562
3544 7788
3544 7907
3544 8141
3544 8250
3545 4454
3545 4618
3545 5365
3545 5440
3545 5962
3545 7424
3546 5370
3546 6685
3546 6779
3546 8139
3547 3937
3547 6689
3549 3549
3549 3931
3549 4663
3550 7005
3551 4586
3553 5914
3554 6141
3555 3648
3555 3788
3556 3580
3556 3818
3556 6381
3557 4291
3557 4712
3557 5802
3557 6791
3558 6270
3560 4046
3561 3758
3561 6489
3561 6574
3561 7408
3561 7705
3561 7767
3561 7929
3563 3684
3563 6573
3563 6976
3563 7011
3563 7276
3563 7591
3563 7632
3563 7650
3563 7688
3563 7822
3563 7824
3563 7927
3563 8047
3565 3565
3566 4084
3566 4423
3566 4445
3566 4715
3566 4977
3566 5234
3566 5240
3566 5261
3566 5880
3566 6498
3566 6506
3566 6605
3566 6809
3566 7727
3566 7747
3566 7985
3567 6482
3568 7034
3569 6406
3570 6739
3571 5885
3572 3826
3572 4091
3572 4256
3572 4308
3572 4773
3572 4778
3572 5397
3572 7015
3572 7178
3572 7404
3572 7541
3572 7587
3573 4447
3573 4572
3573 6106
3573 7143
3574 3891
3574 4051
3574 4416
3574 4723
3574 4770
3574 4846
3574 5015
3574 5383
3574 5835
3574 5874
3574 5885
3574 6208
3574 6236
3574 6573
3574 6587
3574 6735
3574 6874
3574 6939
3574 6941
3574 7276
3574 7555
3574 7687
3574 7689
3575 3902
3575 3940
3575 3944
3575 4100
3575 4222
3575 4237
3575 4477
3575 4572
3575 4586
3575 4654
3575 5262
3575 5269
3575 5291
3575 5308
3575 5761
3575 5764
3575 5874
3575 5928
3575 6141
3575 6209
3575 6440
3575 6517
3575 6634
3575 6836
3575 6915
3575 6971
3575 7015
3575 7047
3575 7281
3575 7360
3575 7373
3575 7523
3575 7549
3575 7587
3575 7592
3575 7726
3575 7788
3575 7939
3576 3603
3576 6866
3577 7613
3578 3644
3578 4223
3578 5342
3578 5650
3578 6136
3580 3596
3580 3751
3580 3833
3580 3965
3580 4085
3580 4128
3580 4150
3580 4249
3580 4348
3580 4713
3580 4870
3580 4913
3580 4950
3580 5053
3580 5133
3580 5164
3580 5171
3580 5204
3580 5300
3580 5498
3580 5507
3580 5518
3580 5595
3580 5610
3580 5641
3580 5646
3580 5678
3580 5716
3580 5726
3580 5771
3580 5785
3580 5831
3580 6259
3580 6299
3580 6381
3580 6496
3580 6538
3580 6843
3580 6857
3580 6866
3580 6867
3580 6907
3580 6949
3580 7003
3580 7012
3580 7031
3580 7045
3580 7090
3580 7181
3580 7272
3580 7391
3580 7453
3580 7481
3580 7553
3580 7646
3580 7902
3580 7974
3580 8216
3581 3743
3581 4993
3581 5433
3581 6801
3582 3826
3582 4144
3582 4773
3582 7235
3583 3823
3584 4723
3585 3826
3587 6418
3588 5489
3588 5726
3588 6033
3588 7125
3589 7523
3590 3622
3590 5840
3590 6874
3590 7190
3590 7360
3591 4586
3591 6579
3592 3890
3592 4431
3592 4505
3592 4804
3592 5119
3592 5317
3592 5350
3592 5389
3592 5397
3592 5526
3592 5810
3592 5902
3592 6267
3592 6339
3592 6369
3592 6435
3592 6507
3592 6719
3592 6987
3592 7083
3592 7161
3592 7191
3592 7252
3592 7254
3592 7582
3592 7871
3592 8080
3592 8152
3592 8159
3593 3593
3593 3965
3593 4201
3593 5171
3593 5289
3593 5391
3593 6084
3593 6601
3593 6789
3593 7347
3593 7448
3593 7948
3593 8010
3593 8107
3596 3651
3596 4056
3596 4561
3596 5192
3596 5454
3596 6414
3596 7359
3596 7553
3596 7985
3599 5785
3599 6141
3600 3818
3600 4445
3600 4507
3600 4875
3600 4977
3600 5121
3600 5197
3600 5381
3600 5773
3600 6014
3600 6111
3600 6498
3600 7157
3600 7332
3600 7727
3600 7882
3601 6802
3602 3826
3603 3656
3603 4026
3603 4056
3603 4226
3603 4370
3603 4445
3603 4464
3603 4497
3603 4507
3603 4516
3603 4891
3603 4964
3603 5087
3603 5563
3603 5880
3603 6370
3603 6506
3603 6785
3603 6802
3603 7332
3603 7506
3603 7727
3603 7747
3603 7957
3603 8062
3603 8113
3604 7161
3605 4170
3606 6158
3607 4804
3608 4397
3609 5110
3609 5296
3609 6304
3609 6406
3609 6817
3610 6498
3612 7079
3613 3867
3613 4199
3613 6032
3613 6082
3613 6379
3613 7011
3613 7821
3615 5295
3615 5953
3615 7771
3615 8123
3616 3662
3616 4348
3616 4387
3616 4631
3616 5197
3616 5221
3616 5546
3616 6840
3617 3924
3617 6939
3617 7690
3618 3630
3618 4127
3618 4291
3618 5346
3618 6052
3618 6870
3618 7706
3618 8004
3618 8168
3619 3619
3619 4773
3619 7190
3621 5248
3621 7393
3623 3826
3624 7268
3624 7400
3625 4654
3625 6156
3626 3826
3627 3703
3627 4227
3627 4513
3627 4640
3627 5098
3627 5169
3627 5336
3627 5386
3627 5615
3627 5661
3627 5751
3627 5762
3627 5980
3627 6069
3627 6103
3627 6125
3627 6229
3627 6267
3627 6280
3627 6343
3627 6477
3627 6763
3627 6915
3627 6925
3627 7212
3627 7237
3627 7275
3627 7610
3627 7694
3627 7840
3629 4191
3629 4586
3629 4883
3629 5126
3629 5342
3629 5391
3629 5517
3629 5572
3629 5594
3629 6096
3629 6625
3629 6633
3629 6634
3629 6654
3629 6710
3629 6939
3629 6967
3629 7034
3629 7596
3629 7597
3629 7848
3629 7857
3629 7870
3629 7897
3629 8197
3630 4475
3630 5257
3630 7005
3631 7411
3633 6259
3634 4100
3634 4131
3634 4399
3634 4586
3634 5284
3634 5329
3634 6022
3634 6352
3634 6407
3636 3636
3637 7034
3638 5715
3639 4397
3639 4949
3639 6096
3640 3693
3641 4094
3642 4656
3642 7281
3643 4294
3643 5571
3643 6654
3643 6938
3643 6946
3643 6951
3643 7190
3643 7459
3644 3679
3644 3684
3644 3701
3644 3852
3644 3890
3644 3924
3644 4093
3644 4210
3644 4586
3644 4661
3644 4706
3644 4834
3644 5004
3644 5071
3644 5072
3644 5198
3644 5291
3644 5342
3644 5586
3644 5661
3644 5669
3644 5749
3644 5751
3644 5859
3644 5874
3644 5977
3644 6067
3644 6069
3644 6173
3644 6417
3644 6477
3644 6479
3644 6573
3644 6634
3644 6763
3644 6791
3644 6836
3644 6898
3644 6997
3644 7018
3644 7034
3644 7217
3644 7237
3644 7276
3644 7281
3644 7360
3644 7385
3644 7438
3644 7483
3644 7561
3644 7587
3644 7607
3644 7689
3644 8007
3645 7393
3646 6141
3649 4586
3649 5098
3650 5824
3650 6089
3651 3651
3651 3750
3651 3812
3651 3884
3651 3904
3651 4056
3651 4085
3651 4348
3651 4445
3651 4686
3651 4689
3651 4929
3651 4977
3651 4990
3651 5352
3651 5498
3651 5546
3651 5680
3651 5771
3651 5824
3651 5843
3651 6033
3651 6054
3651 6111
3651 6248
3651 6336
3651 6414
3651 6432
3651 6460
3651 6506
3651 6519
3651 6574
3651 6704
3651 6739
3651 6802
3651 6843
3651 6935
3651 7041
3651 7122
3651 7125
3651 7181
3651 7332
3651 7376
3651 7412
3651 7621
3651 7733
3651 7929
3651 7946
3651 7957
3651 8062
3652 4464
3652 4929
3652 6704
3653 3704
3653 3712
3653 3804
3653 3826
3653 3849
3653 4071
3653 4082
3653 4661
3653 4685
3653 4778
3653 4820
3653 5027
3653 5262
3653 5291
3653 5308
3653 5315
3653 5340
3653 5348
3653 5379
3653 5408
3653 5661
3653 5790
3653 5897
3653 5997
3653 6118
3653 6267
3653 6656
3653 6743
3653 6836
3653 6962
3653 7178
3653 7190
3653 7217
3653 7560
3653 7562
3653 7589
3653 8099
3653 8151
3653 8234
3654 3654
3654 5947
3654 6258
3654 6686
3656 3751
3656 4221
3656 5164
3656 5403
3656 5489
3657 5900
3657 7842
3657 7913
3658 3691
3658 4073
3658 4144
3658 4223
3658 4291
3658 4540
3658 4696
3658 6791
3659 3659
3660 7824
3661 3661
3661 3839
3661 4903
3661 4907
3661 5131
3661 7596
3661 7597
3661 7857
3661 7870
3661 7897
3662 3662
3662 3710
3662 3718
3662 3904
3662 4445
3662 4485
3662 4714
3662 4814
3662 4875
3662 4947
3662 4977
3662 4990
3662 5078
3662 5133
3662 5164
3662 5171
3662 5197
3662 5266
3662 5489
3662 5601
3662 5641
3662 5646
3662 5678
3662 5722
3662 5771
3662 5800
3662 6053
3662 6111
3662 6259
3662 6271
3662 6336
3662 6349
3662 6414
3662 6574
3662 6724
3662 6857
3662 7090
3662 7122
3662 7181
3662 7290
3662 7376
3662 7412
3662 7492
3662 7509
3662 7545
3662 7705
3662 7727
3662 7937
3662 8119
3662 8255
3663 7567
3664 4399
3664 5329
3664 6382
3665 4052
3665 4150
3665 5171
3665 5489
3665 5595
3665 7705
3667 4335
3667 4360
3667 7752
3668 3684
3668 5885
3668 6450
3669 4980
3670 4618
3670 4667
3671 5218
3672 4376
3672 6799
3674 5562
3675 4833
3675 7438
3675 8049
3678 4158
3678 4187
3678 5230
3678 5571
3678 5830
3678 6319
3678 6412
3678 6591
3678 6710
3678 7400
3679 4007
3679 4565
3679 6145
3679 6383
3679 6965
3679 6996
3679 7034
3679 7171
3679 7276
3679 7346
3679 7555
3679 7591
3679 8013
3680 6694
3681 3991
3681 5678
3681 5956
3681 6795
3681 7788
3682 3700
3683 4586
3684 3684
3684 3891
3684 4022
3684 4143
3684 4144
3684 4291
3684 4397
3684 4399
3684 4515
3684 4543
3684 4565
3684 4590
3684 4612
3684 4804
3684 4807
3684 4811
3684 4822
3684 4943
3684 5342
3684 5383
3684 5416
3684 5422
3684 5462
3684 5572
3684 5753
3684 5764
3684 5885
3684 5952
3684 5953
3684 5970
3684 6050
3684 6090
3684 6145
3684 6156
3684 6325
3684 6383
3684 6404
3684 6633
3684 6852
3684 6854
3684 6928
3684 6939
3684 6941
3684 6951
3684 6953
3684 6959
3684 6964
3684 6965
3684 6967
3684 6970
3684 7011
3684 7060
3684 7080
3684 7088
3684 7171
3684 7226
3684 7265
3684 7276
3684 7478
3684 7591
3684 7632
3684 7650
3684 7683
3684 7691
3684 7706
3684 7794
3684 7817
3684 7819
3684 7829
3684 7914
3684 7927
3684 7934
3684 7941
3684 7950
3684 7976
3684 7992
3684 7999
3684 8003
3684 8040
3684 8047
3684 8109
3684 8123
3684 8144
3684 8162
3684 8168
3684 8187
3685 4782
3685 5646
3686 6625
3687 6133
3688 6053
3688 8124
3690 5065
3691 3807
3691 3973
3691 4007
3691 4166
3691 4191
3691 4359
3691 4416
3691 4427
3691 4586
3691 5126
3691 5225
3691 5294
3691 5326
3691 5642
3691 5874
3691 5902
3691 5904
3691 6103
3691 6160
3691 6178
3691 6253
3691 6335
3691 6625
3691 6654
3691 6791
3691 6897
3691 6939
3691 7072
3691 7124
3691 7385
3691 7596
3691 7597
3691 7670
3691 7688
3691 7768
3691 7839
3691 7857
3691 7870
3691 7897
3691 7986
3691 8036
3691 8068
3691 8071
3691 8263
3692 4773
3692 7190
3692 7217
3692 7487
3693 4321
3693 4773
3693 5308
3693 6267
3693 6393
3695 4291
3695 4305
3695 4307
3697 3840
3698 7034
3699 7688
3700 3912
3700 4132
3700 4158
3700 4216
3700 4279
3700 4294
3700 4434
3700 4578
3700 4586
3700 4804
3700 5015
3700 5046
3700 5148
3700 5415
3700 5875
3700 5887
3700 6011
3700 6137
3700 6141
3700 6162
3700 6186
3700 6190
3700 6194
3700 6339
3700 6388
3700 6428
3700 6443
3700 6531
3700 6651
3700 6889
3700 6918
3700 6962
3700 6990
3700 7106
3700 7158
3700 7268
3700 7515
3700 7731
3700 8004
3700 8083
3700 8209
3702 5961
3703 3704
3703 4519
3703 5322
3703 5711
3703 5774
3703 6191
3703 6477
3703 6711
3703 6975
3703 7562
3704 4093
3704 4303
3704 4312
3704 4656
3704 5173
3704 5322
3704 5386
3704 5697
3704 5748
3704 5749
3704 5758
3704 5762
3704 5874
3704 6164
3704 6558
3704 6891
3704 6915
3704 6925
3704 7129
3704 7160
3704 7281
3704 7374
3704 7407
3704 7627
3704 7643
3704 7797
3705 3883
3705 7296
3707 4686
3707 6496
3707 6739
3708 7393
3709 6967
3709 7080
3710 3733
3710 3825
3710 4445
3710 4939
3710 5066
3710 5197
3710 5261
3710 5546
3710 5622
3710 6111
3710 6336
3710 7801
3710 7985
3711 4511
3712 5102
3712 7091
3712 7268
3712 7732
3712 7881
3713 7190
3713 7587
3713 7691
3714 7633
3715 6325
3716 5046
3716 5914
3717 4667
3717 5807
3718 4026
3718 4501
3718 4667
3718 5338
3718 7500
3718 7704
3718 7850
3718 8125
3721 4950
3722 3722
3722 4625
3722 4972
3722 5154
3722 5291
3722 6141
3722 6244
3722 6388
3722 6558
3722 6621
3722 6666
3722 7360
3723 5627
3723 5716
3724 3774
3724 5968
3724 7034
3725 3918
3725 3984
3725 4348
3725 4423
3725 4977
3725 5121
3725 5261
3725 5712
3725 5737
3725 5880
3725 6109
3725 6218
3725 6381
3725 6683
3725 6728
3725 7747
3725 8062
3726 4101
3726 4127
3726 4586
3726 4654
3726 4655
3726 4876
3726 4957
3726 5006
3726 5062
3726 6141
3726 6355
3726 6390
3726 6536
3726 6801
3726 7190
3726 7360
3726 8141
3728 7373
3729 4992
3729 6067
3729 7406
3730 5065
3730 7276
3730 7822
3731 4523
3733 3751
3733 3758
3733 4990
3733 5026
3733 5133
3733 5601
3733 5831
3733 6155
3733 6349
3733 7132
3733 7376
3733 7481
3733 7492
3733 7733
3734 5973
3735 7346
3735 7393
3736 4773
3736 5291
3736 7141
3736 7822
3737 5065
3739 3826
3739 4184
3739 4769
3739 5138
3739 5208
3739 5560
3740 6374
3740 6428
3740 6625
3740 7034
3740 7124
3741 5277
3742 3826
3742 6515
3742 6634
3742 7709
3744 5238
3744 5251
3744 7096
3744 7770
3744 7960
3746 5422
3747 3818
3747 3925
3747 3980
3747 4164
3747 4445
3747 4665
3747 5546
3747 5674
3747 6031
3747 6111
3747 6381
3747 7727
3748 6962
3749 3925
3749 3984
3749 4348
3749 4445
3749 6414
3749 7045
3750 3814
3750 4348
3750 4939
3750 4977
3750 5136
3750 5352
3750 5674
3750 5880
3750 6403
3751 3818
3751 4084
3751 4304
3751 4445
3751 4864
3751 4939
3751 5022
3751 5234
3751 5396
3751 5477
3751 5546
3751 5657
3751 5880
3751 6163
3751 6183
3751 6218
3751 6330
3751 6381
3751 6476
3751 6498
3751 6506
3751 6605
3751 6802
3751 7061
3751 7094
3751 7359
3751 7506
3751 7727
3751 7751
3751 8066
3752 7190
3753 5996
3754 4513
3755 4144
3755 6799
3757 3891
3757 5910
3757 7524
3758 3825
3758 3980
3758 3984
3758 4439
3758 5026
3758 5086
3758 5349
3758 5546
3758 5622
3758 6111
3758 6835
3758 7727
3759 5291
3760 6053
3760 6749
3761 4348
3761 4586
3761 5215
3761 6019
3761 8109
3761 8162
3762 3847
3762 4304
3762 5062
3762 5262
3762 7245
3762 7463
3763 7276
3764 3778
3764 5110
3764 5291
3765 6000
3765 6267
3765 7292
3765 7825
3765 7949
3765 8151
3766 3885
3767 5537
3767 6756
3768 3939
3768 4445
3768 5171
3768 5610
3768 6414
3768 6489
3768 7529
3768 8119
3769 6407
3769 7817
3770 4460
3770 6401
3771 6718
3773 4434
3774 3903
3774 4158
3774 4706
3774 4741
3774 4793
3774 4804
3774 4846
3774 5393
3774 6257
3774 6590
3774 6874
3774 7091
3774 7357
3774 8013
3777 5958
3778 3841
3778 4014
3778 4087
3778 4294
3778 4467
3778 4519
3778 4586
3778 4655
3778 4865
3778 5198
3778 5225
3778 5533
3778 5785
3778 5929
3778 6267
3778 6375
3778 6801
3778 6898
3778 7360
3778 7473
3778 7744
3779 5021
3780 4398
3780 5020
3780 5877
3780 6704
3780 7676
3780 7801
3781 5110
3781 5875
3781 6208
3781 7012
3781 7731
3782 4056
3783 7357
3784 5072
3784 5291
3784 5977
3784 7161
3784 7281
3784 7686
3784 7734
3784 8109
3784 8162
3785 7823
3788 3788
3788 4498
3788 4550
3789 5171
3790 4500
3790 8153
3791 5824
3792 7197
3792 7656
3793 3891
3793 3895
3793 3950
3793 4143
3793 4416
3793 4487
3793 4679
3793 4852
3793 5050
3793 5407
3793 5589
3793 5906
3793 6072
3793 6341
3793 6810
3793 6939
3793 6940
3793 6941
3793 6946
3793 6998
3793 7011
3793 7021
3793 7034
3793 7072
3793 7190
3793 7191
3793 7276
3793 7381
3793 7398
3793 7491
3793 7591
3793 7632
3793 7649
3793 7688
3793 7691
3793 7824
3793 7935
3793 7963
3793 7998
3793 7999
3793 8047
3793 8105
3793 8109
3793 8162
3794 5245
3794 8001
3794 8255
3795 7506
3796 5778
3798 3844
3798 6538
3799 5874
3800 6634
3800 7346
3801 5927
3801 6000
3803 6381
3803 6506
3804 5329
3804 5638
3804 6208
3804 6226
3804 6406
3804 7164
3806 4249
3806 4814
3806 4990
3806 6496
3807 3959
3807 4051
3807 4475
3807 4623
3807 4710
3807 4991
3807 5342
3807 6124
3807 7204
3807 8058
3808 7732
3809 5785
3810 4150
3810 4348
3810 4714
3810 4950
3810 5610
3810 5706
3810 5716
3810 6111
3810 6336
3810 6519
3810 6724
3810 6799
3810 6867
3810 7181
3810 7456
3810 7481
3810 7509
3810 7553
3810 7621
3810 7705
3810 7801
3810 7902
3810 8119
3813 8109
3813 8162
3815 3815
3815 4224
3816 4977
3816 6689
3817 4085
3817 6155
3817 6180
3817 7041
3817 7991
3818 3834
3818 4085
3818 4115
3818 4146
3818 4150
3818 4322
3818 4398
3818 4464
3818 4570
3818 4595
3818 4599
3818 4665
3818 4714
3818 4814
3818 4870
3818 4968
3818 4994
3818 5053
3818 5133
3818 5134
3818 5171
3818 5314
3818 5444
3818 5478
3818 5500
3818 5601
3818 5602
3818 5632
3818 5639
3818 5641
3818 5646
3818 5678
3818 5680
3818 5716
3818 5722
3818 5771
3818 5800
3818 5814
3818 5858
3818 5933
3818 5945
3818 6035
3818 6036
3818 6299
3818 6349
3818 6414
3818 6496
3818 6499
3818 6563
3818 6574
3818 6617
3818 6696
3818 6866
3818 6867
3818 6949
3818 6954
3818 7003
3818 7031
3818 7041
3818 7090
3818 7122
3818 7246
3818 7272
3818 7376
3818 7391
3818 7408
3818 7448
3818 7456
3818 7481
3818 7487
3818 7545
3818 7614
3818 7676
3818 7698
3818 7705
3818 7722
3818 7736
3818 7767
3818 7800
3818 7860
3818 7902
3818 7974
3818 8053
3818 8205
3820 4397
3820 4543
3820 5212
3820 5835
3820 6705
3820 6874
3820 6883
3820 6928
3820 6938
3820 7072
3820 7265
3820 7276
3820 7822
3821 5560
3821 6505
3822 3866
3823 5334
3823 6314
3824 4009
3825 3884
3825 4028
3825 4115
3825 4150
3825 4476
3825 4485
3825 4814
3825 4950
3825 5489
3825 5588
3825 5622
3825 5702
3825 5740
3825 5858
3825 6268
3825 6336
3825 6496
3825 6574
3825 6715
3825 6724
3825 7224
3825 7290
3825 7408
3825 7492
3825 7608
3825 7902
3825 7985
3826 3881
3826 4069
3826 4104
3826 4170
3826 4178
3826 4224
3826 4234
3826 4253
3826 4335
3826 4344
3826 4360
3826 4377
3826 4397
3826 4483
3826 4491
3826 4498
3826 4509
3826 4566
3826 4578
3826 4736
3826 4741
3826 4750
3826 4779
3826 4793
3826 4825
3826 5052
3826 5102
3826 5216
3826 5276
3826 5404
3826 5473
3826 5566
3826 5701
3826 5745
3826 5972
3826 6158
3826 6161
3826 6177
3826 6184
3826 6247
3826 6270
3826 6325
3826 6328
3826 6379
3826 6383
3826 6407
3826 6408
3826 6415
3826 6443
3826 6579
3826 6612
3826 6644
3826 6691
3826 6733
3826 6861
3826 7022
3826 7029
3826 7087
3826 7145
3826 7196
3826 7210
3826 7245
3826 7281
3826 7429
3826 7463
3826 7628
3826 7638
3826 7649
3826 7825
3826 7930
3826 7967
3826 8049
3826 8071
3827 4399
3827 4712
3827 4723
3827 4878
3827 6615
3827 7281
3828 5299
3828 6362
3829 3829
3829 4191
3829 4294
3829 4475
3829 5571
3829 5961
3829 6372
3829 6710
3829 6735
3829 6939
3829 7990
3829 7998
3831 3831
3831 6402
3831 6903
3833 5026
3833 5726
3833 6031
3833 6381
3833 6414
3833 7383
3833 7727
3834 7034
3834 7346
3835 5777
3836 5563
3836 6111
3836 6574
3836 6715
3836 8113
3838 4494
3838 4841
3839 5952
3840 4197
3840 7773
3841 5203
3841 7625
3842 5840
3842 6596
3843 5686
3844 4635
3844 6401
3844 7252
3845 6053
3846 4416
3846 5383
3846 5885
3846 6162
3846 7276
3847 4051
3847 4789
3847 5329
3847 5874
3847 6208
3847 6590
3847 7034
3847 7555
3848 6372
3849 3849
3849 3863
3849 3886
3849 4486
3849 5346
3849 5638
3849 5785
3849 6208
3849 6548
3849 6625
3849 6654
3849 6687
3849 6735
3849 6939
3849 6946
3849 6962
3849 7012
3849 7124
3849 7276
3849 7334
3849 7691
3849 7990
3849 7998
3851 6424
3852 4256
3852 4399
3852 4548
3852 4578
3852 4623
3852 4696
3852 6083
3852 6505
3853 6522
3854 6141
3855 5284
3856 5646
3857 3951
3857 4667
3857 5084
3857 5980
3857 6287
3857 6354
3857 6535
3857 6853
3857 6894
3857 6915
3857 7386
3857 7840
3859 3993
3859 4127
3859 4397
3859 5432
3859 5748
3859 6157
3859 6535
3859 7190
3859 7264
3860 4397
3860 4434
3860 4654
3860 4661
3860 4782
3860 4943
3860 5171
3860 5308
3860 5342
3860 5348
3860 5694
3860 5874
3860 5997
3860 6053
3860 6259
3860 6622
3860 6651
3860 6696
3860 6718
3860 6915
3860 7011
3860 7080
3860 7276
3860 7292
3860 7407
3860 7464
3860 7592
3860 7687
3860 7772
3860 7788
3860 7817
3860 8099
3860 8170
3861 7275
3862 7090
3862 7890
3863 5262
3863 5291
3863 5980
3863 6853
3863 7281
3863 7360
3863 7463
3865 5034
3865 5306
3865 5927
3865 6193
3865 7591
3865 7717
3865 8047
3865 8060
3866 4376
3866 4819
3866 5091
3866 5334
3866 5962
3866 6048
3866 6974
3866 7155
3866 7362
3866 7937
3867 3867
3867 3890
3867 3957
3867 3977
3867 4193
3867 4199
3867 4346
3867 4519
3867 4572
3867 4654
3867 4684
3867 4776
3867 4800
3867 4932
3867 5139
3867 5187
3867 5257
3867 5348
3867 5437
3867 5638
3867 5741
3867 5763
3867 5785
3867 5790
3867 5953
3867 6032
3867 6082
3867 6186
3867 6208
3867 6339
3867 6405
3867 6406
3867 6412
3867 6454
3867 6548
3867 6627
3867 6719
3867 6827
3867 6833
3867 6993
3867 7001
3867 7011
3867 7012
3867 7036
3867 7164
3867 7234
3867 7251
3867 7254
3867 7286
3867 7292
3867 7326
3867 7339
3867 7352
3867 7355
3867 7378
3867 7406
3867 7482
3867 7589
3867 7743
3867 7832
3867 7900
3867 7937
3867 8051
3867 8202
3867 8233
3868 4484
3868 8142
3870 4770
3870 5835
3870 6625
3870 6705
3870 6937
3870 6946
3870 6951
3870 7235
3870 7689
3870 7998
3871 3979
3871 4007
3871 5818
3872 4654
3872 5929
3872 6390
3872 6694
3873 4093
3873 4586
3873 4661
3873 4667
3873 5126
3873 5291
3873 5408
3873 5749
3873 5762
3873 5980
3873 6021
3873 6069
3873 6141
3873 6388
3873 6535
3873 6853
3873 6915
3873 6925
3873 7015
3873 7360
3873 7532
3873 7587
3873 7840
3873 8013
3874 6418
3874 6523
3874 6791
3875 7371
3877 6248
3877 7167
3878 6634
3879 5273
3880 3930
3880 4804
3881 3881
3881 4151
3881 4354
3881 4559
3881 4623
3881 4773
3881 5004
3881 5484
3881 5661
3881 6289
3881 6753
3881 7321
3881 7361
3881 7980
3882 5566
3883 4494
3883 4618
3883 5021
3883 5412
3883 6222
3883 6703
3883 6837
3883 7153
3884 3984
3884 4439
3884 4450
3884 4689
3884 4715
3884 4732
3884 4977
3884 5234
3884 5352
3884 5507
3884 5546
3884 5674
3884 5807
3884 5880
3884 6111
3884 6211
3884 6218
3884 6321
3884 6336
3884 6506
3884 7122
3884 7500
3884 7727
3884 7747
3884 7985
3884 8119
3884 8124
3885 4210
3885 4355
3885 4399
3885 4949
3885 5070
3885 5228
3885 5435
3885 5972
3885 6029
3885 6208
3885 7369
3885 7515
3885 7702
3886 3886
3886 5486
3886 6456
3886 6747
3886 6779
3886 6836
3886 7232
3886 7840
3887 6621
3887 7034
3890 4804
3890 5885
3890 6101
3890 6406
3890 6609
3890 6808
3890 7015
3890 7355
3890 7400
3890 7937
3891 3891
3891 3895
3891 3950
3891 3957
3891 4356
3891 4416
3891 4455
3891 4489
3891 4822
3891 4887
3891 4943
3891 5168
3891 5294
3891 5370
3891 5383
3891 5432
3891 5505
3891 5649
3891 5660
3891 5676
3891 5753
3891 5885
3891 5906
3891 6022
3891 6118
3891 6160
3891 6634
3891 6654
3891 6735
3891 6753
3891 6874
3891 6883
3891 6897
3891 6937
3891 6938
3891 6939
3891 6941
3891 6946
3891 6964
3891 6965
3891 6967
3891 6976
3891 6998
3891 7011
3891 7124
3891 7265
3891 7276
3891 7387
3891 7403
3891 7491
3891 7570
3891 7587
3891 7591
3891 7592
3891 7632
3891 7638
3891 7649
3891 7650
3891 7680
3891 7684
3891 7686
3891 7688
3891 7689
3891 7691
3891 7719
3891 7720
3891 7759
3891 7794
3891 7817
3891 7819
3891 7821
3891 7824
3891 7884
3891 7927
3891 7941
3891 7950
3891 7981
3891 7990
3891 7999
3891 8003
3891 8047
3891 8109
3891 8114
3891 8162
3891 8197
3891 8200
3892 4131
3892 6226
3892 6621
3892 7217
3892 7892
3893 4378
3894 5962
3894 6032
3895 4230
3895 4565
3895 4755
3895 5342
3895 5383
3895 5416
3895 5484
3895 6090
3895 6587
3895 6990
3895 7011
3895 7276
3895 7321
3895 7687
3895 7690
3896 7577
3897 3897
3897 4578
3897 4736
3897 5015
3897 5148
3897 5308
3897 5617
3897 6110
3897 6184
3897 6267
3897 6315
3897 6374
3897 6388
3897 6433
3897 6543
3897 6651
3897 6656
3897 6709
3897 7587
3897 7600
3899 4144
3899 5517
3900 4696
3900 5046
3900 5216
3900 5661
3900 7281
3900 7406
3900 7732
3900 8004
3900 8089
3901 5871
3901 6735
3901 7088
3901 7276
3901 8109
3901 8162
3902 4696
3902 4723
3902 4804
3902 5305
3902 5342
3902 5785
3902 5914
3902 6162
3902 6557
3902 6801
3902 7012
3902 7700
3903 5329
3903 6401
3903 6685
3903 8139
3904 3925
3904 3984
3904 4056
3904 4248
3904 4511
3904 4516
3904 4638
3904 4689
3904 4715
3904 4875
3904 5197
3904 5352
3904 5507
3904 5657
3904 5674
3904 5880
3904 6111
3904 6506
3904 6689
3904 7011
3904 7025
3904 7399
3904 7727
3904 8164
3905 3905
3905 6280
3905 7161
3907 3995
3908 4352
3908 6616
3908 7011
3909 5536
3910 3912
3911 5164
3911 7456
3912 3964
3912 4617
3912 5408
3912 6162
3912 6367
3912 6761
3912 7276
3912 7473
3912 7491
3912 7691
3913 4423
3913 6799
3914 6053
3918 4146
3918 4464
3918 4686
3918 5153
3918 5164
3918 5726
3918 5771
3918 6468
3918 6704
3918 6739
3918 6866
3918 6949
3918 7041
3918 7246
3918 7332
3918 7605
3918 7733
3918 7776
3919 5216
3920 3925
3920 3937
3920 5086
3920 5563
3920 6111
3920 6506
3921 4101
3921 6226
3921 7656
3923 6116
3924 4093
3924 4127
3924 4356
3924 4416
3924 4586
3924 4623
3924 4667
3924 4685
3924 4712
3924 4869
3924 5071
3924 5126
3924 5265
3924 5291
3924 5515
3924 5649
3924 5751
3924 5927
3924 5946
3924 6067
3924 6103
3924 6110
3924 6118
3924 6162
3924 6194
3924 6372
3924 6383
3924 6406
3924 6656
3924 6705
3924 6735
3924 6915
3924 6939
3924 7167
3924 7235
3924 7264
3924 7276
3924 7360
3924 7473
3924 7532
3924 7691
3924 7773
3924 7935
3924 8004
3924 8149
3925 3925
3925 4085
3925 4115
3925 4146
3925 4150
3925 4164
3925 4301
3925 4422
3925 4445
3925 4511
3925 4599
3925 4613
3925 4713
3925 4714
3925 4814
3925 4950
3925 5053
3925 5095
3925 5133
3925 5164
3925 5202
3925 5204
3925 5398
3925 5478
3925 5546
3925 5549
3925 5610
3925 5641
3925 5646
3925 5674
3925 5680
3925 5706
3925 5716
3925 5726
3925 5788
3925 5800
3925 5831
3925 5858
3925 5945
3925 6004
3925 6053
3925 6111
3925 6163
3925 6172
3925 6180
3925 6196
3925 6207
3925 6230
3925 6271
3925 6299
3925 6321
3925 6326
3925 6381
3925 6414
3925 6489
3925 6496
3925 6574
3925 6598
3925 6728
3925 6739
3925 6857
3925 6866
3925 6867
3925 6907
3925 6949
3925 7003
3925 7090
3925 7181
3925 7290
3925 7376
3925 7391
3925 7408
3925 7456
3925 7481
3925 7506
3925 7509
3925 7545
3925 7553
3925 7605
3925 7646
3925 7676
3925 7705
3925 7712
3925 7722
3925 7736
3925 7767
3925 7800
3925 7801
3925 7811
3925 7860
3925 7902
3925 7991
3925 8062
3925 8116
3925 8119
3925 8124
3925 8216
3926 4662
3926 5968
3926 7197
3927 5678
3927 6248
3928 7011
3928 7999
3930 4394
3930 4467
3930 4953
3930 5054
3930 5108
3930 5417
3930 5449
3930 6267
3930 6405
3930 6621
3930 7133
3930 7561
3930 7596
3930 7597
3930 7857
3930 7865
3930 7870
3930 7897
3930 8020
3931 3931
3931 4663
3934 7394
3935 3935
3935 5065
3935 5484
3935 5593
3935 5962
3935 6165
3935 7108
3935 7571
3935 7855
3935 7898
3935 7966
3935 8002
3937 3937
3937 4125
3937 4219
3937 4226
3937 4342
3937 4388
3937 4667
3937 4689
3937 4714
3937 4840
3937 4879
3937 5066
3937 5073
3937 5215
3937 5507
3937 5588
3937 5627
3937 5674
3937 5992
3937 6025
3937 6109
3937 6163
3937 6180
3937 6248
3937 6259
3937 6299
3937 6607
3937 6619
3937 6799
3937 6935
3937 7097
3937 7125
3937 7181
3937 7408
3937 7448
3938 4386
3938 4460
3938 4793
3938 4920
3938 5356
3938 6175
3938 6717
3938 6842
3938 6968
3938 7140
3939 6381
3939 7727
3940 4100
3940 4586
3940 6740
3941 4184
3941 5282
3943 6141
3944 3944
3944 4014
3944 4692
3944 4804
3944 4878
3944 5108
3944 5110
3944 5182
3944 5216
3944 5638
3944 5757
3944 5763
3944 5785
3944 5802
3944 5914
3944 5953
3944 6110
3944 6340
3944 6548
3944 6637
3944 6747
3944 6833
3944 7012
3944 7161
3944 7164
3944 7172
3944 8089
3944 8158
3945 3954
3945 4712
3945 5764
3945 6407
3945 6842
3945 7386
3946 6158
3947 6672
3948 5646
3948 6259
3948 6658
3948 6696
3948 6779
3949 5555
3950 4543
3950 4612
3950 4811
3950 4822
3950 5416
3950 5558
3950 6090
3950 6852
3950 6854
3950 6883
3950 6928
3950 6964
3950 6967
3950 6976
3950 7226
3950 7570
3950 7591
3950 7649
3950 7934
3950 7992
3950 8003
3950 8047
3951 4779
3951 5181
3951 6119
3951 6412
3952 6832
3952 7802
3953 6036
3953 7621
3954 4751
3954 6280
3954 6316
3954 8214
3955 7011
3955 7276
3955 7591
3955 7819
3955 7824
3955 8047
3955 8109
3955 8162
3956 6374
3957 3969
3957 4623
3957 4706
3957 4793
3957 4804
3957 5012
3957 5046
3957 5422
3957 5816
3957 6165
3957 6187
3957 6591
3957 7164
3957 7281
3957 7349
3957 7400
3957 7406
3957 7937
3958 4921
3958 5252
3958 7976
3958 8085
3959 4482
3959 4623
3959 4661
3959 4773
3959 4966
3959 5441
3959 7055
3959 7190
3959 7235
3959 8263
3962 4464
3962 4990
3962 5251
3962 5266
3962 6064
3962 6155
3962 6163
3962 6349
3962 6568
3962 6724
3962 7031
3962 7272
3962 7608
3962 7974
3963 4199
3963 6090
3963 7042
3963 7276
3963 7632
3963 8170
3965 4284
3965 4387
3965 4445
3965 4792
3965 5182
3965 5197
3965 5284
3965 5454
3965 5546
3965 5563
3965 5724
3965 6111
3965 6211
3965 6802
3965 7903
3965 8140
3965 8255
3966 4296
3967 5291
3967 5308
3967 5342
3967 5751
3967 7011
3967 7276
3967 7632
3967 7824
3967 8109
3967 8162
3968 6779
3969 3969
3969 4578
3969 4604
3969 4641
3969 5383
3969 5427
3969 5830
3969 6372
3969 6388
3969 6625
3969 6654
3969 6939
3969 7276
3969 7691
3970 4496
3971 7011
3973 7698
3974 4256
3974 4623
3974 6779
3974 7190
3975 6791
3976 5852
3976 6215
3976 6328
3976 6820
3977 6885
3977 7164
3978 5130
3979 4625
3979 4639
3979 4773
3979 5126
3979 5186
3979 5212
3979 5411
3979 5562
3979 5660
3979 5694
3979 6209
3979 6796
3979 6874
3979 7047
3979 7237
3979 7264
3979 7360
3979 7592
3980 4150
3980 4398
3980 4588
3980 4714
3980 4947
3980 4950
3980 4968
3980 5133
3980 5266
3980 5314
3980 5478
3980 5595
3980 5678
3980 5680
3980 5716
3980 6004
3980 6163
3980 6180
3980 6336
3980 6381
3980 6468
3980 6496
3980 6617
3980 6724
3980 6739
3980 7031
3980 7132
3980 7290
3980 7376
3980 7391
3980 7456
3980 7676
3980 7705
3980 7727
3980 7733
3980 7736
3980 7801
3980 8216
3981 4464
3981 7045
3981 7412
3981 7729
3982 7541
3983 6652
3983 7235
3983 7381
3984 3984
3984 4150
3984 4422
3984 4512
3984 4929
3984 4947
3984 4994
3984 5133
3984 5164
3984 5171
3984 5202
3984 5478
3984 5622
3984 5627
3984 5641
3984 5957
3984 6087
3984 6248
3984 6414
3984 6496
3984 6843
3984 6849
3984 7003
3984 7090
3984 7181
3984 7408
3984 7453
3984 7608
3984 7621
3984 7698
3984 7705
3984 7868
3984 7890
3984 8015
3985 4459
3985 5171
3985 5874
3985 6082
3985 6226
3985 6259
3985 6634
3985 7592
3986 6114
3987 6226
3988 4399
3988 6791
3989 4586
3990 7632
3991 4498
3991 4644
3991 5630
3991 5887
3991 5995
3991 6393
3991 6474
3991 6505
3991 7292
3991 7406
3991 7788
3993 4399
3993 4712
3993 6158
3993 7011
3993 7387
3993 7570
3993 7591
3993 7794
3994 4150
3994 4950
3994 5053
3994 5164
3994 6053
3994 6907
3994 7181
3994 7705
3995 3995
3995 4143
3995 4290
3995 4298
3995 4343
3995 4578
3995 4642
3995 4723
3995 4741
3995 4804
3995 5007
3995 5039
3995 5182
3995 5196
3995 5296
3995 5328
3995 5347
3995 5700
3995 5703
3995 6000
3995 6049
3995 6083
3995 6692
3995 6815
3995 6950
3995 6973
3995 7034
3995 7040
3995 7127
3995 7291
3995 7346
3995 7394
3995 7564
3995 7775
3995 8223
3996 5058
3996 6280
3997 7438
3999 5566
3999 5914
4000 4100
4002 7158
4003 5503
4003 6374
4003 6625
4003 7557
4004 5338
4004 6111
4004 6799
4005 6833
4006 4723
4006 7202
4007 5050
4007 5071
4007 5642
4007 6622
4007 7072
4007 7167
4007 7276
4007 8036
4008 6616
4009 4712
4009 5074
4009 5582
4009 6028
4009 6735
4009 7208
4009 7281
4009 7691
4009 7990
4010 4102
4011 5012
4011 8142
4012 4880
4012 5306
4013 6538
4014 4654
4014 5801
4014 6870
4014 7208
4014 8142
4015 4122
4017 6161
4018 4166
4018 5126
4018 5979
4018 6160
4018 6735
4018 6939
4018 6946
4018 6951
4018 7072
4018 7188
4018 7276
4018 7381
4018 7596
4018 7597
4018 7691
4018 7857
4018 7870
4018 7897
4018 7998
4018 8197
4021 4237
4021 4939
4021 7346
4022 4834
4022 4943
4022 4974
4022 5676
4022 6883
4022 6939
4022 6976
4022 6998
4022 7011
4022 7080
4022 7276
4022 7649
4022 7688
4022 7689
4022 7719
4022 7822
4022 7824
4022 7927
4022 8047
4022 8109
4022 8162
4023 6141
4024 5296
4025 4081
4025 4670
4025 6158
4026 4028
4026 4080
4026 4713
4026 4814
4026 4929
4026 5095
4026 5171
4026 6089
4026 6259
4026 6432
4026 6496
4026 6568
4026 6580
4026 7125
4026 7332
4026 7902
4028 4445
4028 4501
4028 4667
4028 4715
4028 4977
4028 5066
4028 5121
4028 5234
4028 5546
4028 5880
4028 6111
4028 6498
4028 6506
4028 6683
4028 7144
4028 7276
4028 8113
4030 5702
4031 7034
4032 4032
4033 6103
4033 6352
4033 7602
4034 8109
4034 8162
4036 7467
4037 5106
4037 5928
4038 4789
4039 5424
4039 7040
4039 7127
4039 7360
4039 8223
4040 4811
4040 5691
4040 5789
4040 6827
4040 7406
4047 7208
4048 6656
4049 7276
4050 6685
4050 8139
4051 4397
4051 4539
4051 4617
4051 4623
4051 4905
4051 5294
4051 5336
4051 5391
4051 5410
4051 5562
4051 6096
4051 6133
4051 6316
4051 6628
4051 6654
4051 6685
4051 6690
4051 6716
4051 6735
4051 6791
4051 6946
4051 7160
4051 7305
4051 7561
4051 7732
4051 8137
4051 8139
4051 8263
4052 4348
4052 4445
4052 4464
4052 4574
4052 4689
4052 4794
4052 5087
4052 5142
4052 5176
4052 5363
4052 5843
4052 6572
4052 6802
4052 7157
4052 7461
4052 7803
4052 7957
4053 4126
4053 7587
4054 5831
4056 4085
4056 4714
4056 4814
4056 4827
4056 4891
4056 4946
4056 4950
4056 5164
4056 5646
4056 5657
4056 6163
4056 6349
4056 6468
4056 6496
4056 6704
4056 6732
4056 7224
4056 7391
4056 7481
4056 7605
4056 7646
4056 8062
4057 4264
4057 4695
4057 4723
4057 5279
4057 5346
4057 5565
4057 5594
4057 6090
4057 6270
4057 6344
4057 6591
4057 7706
4057 8168
4058 4115
4059 4939
4063 6791
4064 5638
4064 6656
4064 6716
4064 7485
4065 4399
4065 6208
4066 5016
4066 5391
4066 5405
4066 6372
4066 6653
4066 6654
4066 7188
4066 7321
4066 7398
4066 7566
4066 8197
4067 7942
4069 4354
4069 4431
4069 4623
4069 5212
4069 5225
4069 5326
4069 5757
4069 6246
4069 6406
4069 7190
4069 7217
4069 7235
4069 7254
4069 7292
4070 4273
4070 5110
4072 6967
4072 7276
4073 4416
4073 4475
4073 5071
4073 5126
4073 5212
4073 5383
4073 5607
4073 5870
4073 6161
4073 6372
4073 6573
4073 6625
4073 6939
4073 7072
4073 7188
4073 7276
4073 7398
4073 7596
4073 7597
4073 7691
4073 7839
4073 7857
4073 7870
4073 7897
4074 7555
4075 4075
4076 4279
4078 7691
4080 4977
4080 5850
4080 5880
4080 6033
4080 6109
4080 6111
4080 7569
4081 4746
4081 7878
4083 7275
4084 4221
4084 4814
4084 4929
4084 5726
4084 5843
4084 6248
4084 6252
4084 6468
4084 7125
4084 7246
4084 7332
4085 4148
4085 4293
4085 4370
4085 4439
4085 4441
4085 4445
4085 4511
4085 4516
4085 4570
4085 4733
4085 4864
4085 4891
4085 4977
4085 5009
4085 5066
4085 5087
4085 5121
4085 5234
4085 5338
4085 5352
4085 5378
4085 5381
4085 5396
4085 5507
4085 5546
4085 5563
4085 5657
4085 5839
4085 6019
4085 6111
4085 6381
4085 6389
4085 6683
4085 7025
4085 7159
4085 7318
4085 7332
4085 7359
4085 7399
4085 7506
4085 7985
4085 8062
4086 4399
4087 4368
4087 4723
4087 4992
4087 5216
4087 5638
4087 7015
4087 7055
4087 7268
4087 7434
4087 7610
4087 7706
4087 8004
4087 8168
4088 5854
4089 4888
4090 4574
4091 4408
4092 7346
4093 4187
4093 4385
4093 4486
4093 4519
4093 4661
4093 4778
4093 4795
4093 4800
4093 5110
4093 5306
4093 5638
4093 5661
4093 5996
4093 6110
4093 6208
4093 6267
4093 6393
4093 6553
4093 6656
4093 7172
4093 7178
4093 7191
4093 7467
4093 7562
4093 7587
4093 7797
4093 7840
4093 7871
4093 7935
4093 7960
4093 8089
4094 5547
4094 5555
4094 5683
4094 7311
4094 7317
4094 7364
4095 4368
4096 5233
4098 5950
4100 4158
4100 4309
4100 4399
4100 4477
4100 4519
4100 4712
4100 5015
4100 5056
4100 5105
4100 5168
4100 5191
4100 5329
4100 5562
4100 5764
4100 5776
4100 5785
4100 5874
4100 5953
4100 6069
4100 6134
4100 6343
4100 6358
4100 6651
4100 6685
4100 6777
4100 7252
4100 7515
4100 7561
4100 7690
4100 7706
4100 7773
4100 7822
4100 7832
4100 7871
4100 8139
4100 8168
4101 4101
4101 4224
4101 4588
4101 4655
4101 4712
4101 4876
4101 5006
4101 5108
4101 5836
4101 5965
4101 6355
4101 6390
4101 6536
4101 6801
4101 7012
4101 7131
4101 7210
4101 7656
4101 7664
4101 7894
4101 8013
4101 8018
4101 8123
4101 8141
4103 4131
4103 4368
4103 4680
4103 5166
4103 6188
4103 6975
4103 7190
4104 4104
4104 4655
4106 5704
4108 6428
4108 6443
4108 6625
4108 6737
4108 7034
4110 5398
4110 7080
4110 7824
4111 7701
4112 6364
4113 6089
4114 5670
4114 6374
4114 6997
4114 7161
4114 7781
4115 4445
4115 4464
4115 4667
4115 4715
4115 4939
4115 4998
4115 5066
4115 5078
4115 5136
4115 5197
4115 5215
4115 5234
4115 5338
4115 5454
4115 5622
4115 5880
4115 6211
4115 6381
4115 6600
4115 6683
4115 6802
4115 7100
4115 7144
4115 7159
4115 7332
4116 5262
4117 4586
4118 5197
4119 4119
4119 5499
4120 6275
4120 6867
4120 8053
4121 7554
4122 7022
4122 7281
4122 7972
4124 7143
4124 7821
4125 5192
4125 5284
4125 5726
4125 6356
4125 7727
4126 4992
4126 7184
4127 4127
4127 4347
4127 4368
4127 4399
4127 4451
4127 4773
4127 4800
4127 4804
4127 4842
4127 5046
4127 5105
4127 5638
4127 5802
4127 5879
4127 5887
4127 6110
4127 6126
4127 6327
4127 6375
4127 7248
4127 7275
4127 7305
4127 7463
4127 7520
4127 8262
4128 5454
4130 4130
4130 5308
4130 7190
4131 4908
4131 5308
4131 5336
4131 5370
4131 5980
4131 6535
4131 6558
4131 6577
4131 6685
4131 7217
4131 7275
4131 7648
4131 7863
4131 8139
4132 5946
4133 4344
4134 5106
4135 6687
4136 5174
4136 7164
4138 7011
4139 6554
4141 4712
4141 6585
4141 7562
4143 4356
4143 4416
4143 4487
4143 4822
4143 4888
4143 5294
4143 5342
4143 5370
4143 5432
4143 5676
4143 5751
4143 5753
4143 5784
4143 6079
4143 6735
4143 6883
4143 6938
4143 6941
4143 6951
4143 6966
4143 6976
4143 6998
4143 7011
4143 7053
4143 7088
4143 7171
4143 7190
4143 7264
4143 7265
4143 7276
4143 7293
4143 7387
4143 7398
4143 7491
4143 7570
4143 7591
4143 7632
4143 7649
4143 7683
4143 7688
4143 7690
4143 7691
4143 7719
4143 7773
4143 7794
4143 7817
4143 7822
4143 7884
4143 7927
4143 7934
4143 7935
4143 7941
4143 7950
4143 7981
4143 7998
4143 8003
4143 8047
4143 8114
4144 4166
4144 4230
4144 4359
4144 4487
4144 4503
4144 4834
4144 5126
4144 5212
4144 5294
4144 5331
4144 5405
4144 5492
4144 5517
4144 5610
4144 5736
4144 6372
4144 6573
4144 6625
4144 6654
4144 6685
4144 6705
4144 6735
4144 6874
4144 6937
4144 6938
4144 6939
4144 6941
4144 6951
4144 6998
4144 7011
4144 7034
4144 7072
4144 7116
4144 7124
4144 7188
4144 7235
4144 7276
4144 7287
4144 7321
4144 7398
4144 7460
4144 7566
4144 7596
4144 7597
4144 7687
4144 7689
4144 7691
4144 7822
4144 7839
4144 7857
4144 7870
4144 7897
4144 7998
4144 8139
4145 5221
4145 6111
4145 6414
4146 4348
4146 4514
4146 4638
4146 4977
4146 5066
4146 5077
4146 5095
4146 5136
4146 5192
4146 5930
4146 6111
4146 6216
4146 6468
4146 6799
4146 7318
4146 7800
4146 7902
4147 4624
4147 4917
4147 6053
4147 6381
4147 6563
4147 6696
4147 6818
4147 7346
4148 4485
4148 4814
4148 4950
4148 5489
4148 5498
4148 5680
4148 5957
4148 6089
4148 6574
4148 6866
4148 7122
4148 7246
4148 7376
4148 7412
4148 7492
4148 7705
4148 7733
4148 7736
4148 7902
4148 7937
4150 4348
4150 4667
4150 4891
4150 5197
4150 5261
4150 5396
4150 5570
4150 5839
4150 5880
4150 6111
4150 6218
4150 6381
4150 6519
4150 6799
4150 6802
4150 7332
4150 7727
4150 7809
4150 8175
4151 4151
4151 5102
4151 5521
4151 5969
4152 5998
4155 5121
4155 5234
4155 7408
4156 5070
4156 5126
4156 5713
4157 4166
4157 4747
4157 5253
4157 5391
4157 5420
4157 6320
4157 6372
4157 6625
4157 6654
4157 7190
4157 7381
4157 7596
4157 7597
4157 7625
4157 7839
4157 7857
4157 7870
4157 7897
4158 4166
4158 4169
4158 4527
4158 4580
4158 4755
4158 4983
4158 5126
4158 5325
4158 5346
4158 5642
4158 5972
4158 6311
4158 6367
4158 6372
4158 6545
4158 6625
4158 6713
4158 7018
4158 7047
4158 7096
4158 7124
4158 7190
4158 7207
4158 7244
4158 7276
4158 7532
4158 7587
4158 7773
4158 8036
4158 8091
4158 8199
4159 4641
4159 5253
4160 4234
4160 5110
4160 7610
4161 5007
4161 6895
4161 7393
4163 4279
4163 4753
4163 4804
4163 5874
4164 4348
4164 4686
4164 4994
4164 5095
4164 5171
4164 5314
4164 5366
4164 5518
4164 5632
4164 5680
4164 5706
4164 5814
4164 5817
4164 5843
4164 5945
4164 6163
4164 6489
4164 6867
4164 7090
4164 7376
4164 7448
4164 7456
4164 7481
4164 7605
4164 7621
4164 7722
4164 7974
4164 8053
4164 8116
4164 8119
4165 6634
4166 4223
4166 4475
4166 4641
4166 4696
4166 4706
4166 4991
4166 5004
4166 5391
4166 5427
4166 5517
4166 5571
4166 5691
4166 5871
4166 5918
4166 6000
4166 6187
4166 6257
4166 6952
4166 7180
4166 7235
4166 7321
4166 7670
4168 4966
4169 4253
4169 4347
4169 4755
4169 5633
4169 5972
4169 7385
4169 8188
4170 4721
4172 6208
4173 7080
4174 7633
4175 6141
4175 7194
4175 7365
4175 7502
4176 7281
4177 4368
4177 5366
4177 5391
4177 5697
4177 6409
4177 6791
4177 6842
4177 6870
4177 6896
4177 7055
4177 7212
4177 7349
4177 7562
4178 4222
4178 7012
4179 4681
4179 6791
4180 7394
4181 4798
4182 5216
4182 6110
4182 6283
4182 7634
4184 4235
4184 4566
4184 5638
4184 6227
4184 7429
4185 4445
4187 4538
4187 4572
4187 4586
4187 4667
4187 4778
4187 5262
4187 5291
4187 5408
4187 5472
4187 5589
4187 5612
4187 5618
4187 5856
4187 5928
4187 6069
4187 6287
4187 6596
4187 6836
4187 6915
4187 6916
4187 7015
4187 7281
4187 7292
4187 7360
4187 7587
4187 7840
4187 8145
4188 7360
4189 4680
4189 4704
4189 4933
4189 4945
4189 6586
4189 6627
4190 4190
4190 5762
4190 6018
4190 6226
4190 7275
4191 4957
4191 5253
4191 5457
4191 5785
4191 5987
4191 6545
4191 6713
4191 6921
4191 6991
4191 7043
4191 7180
4191 7235
4191 7610
4191 7990
4191 8027
4192 4804
4192 5764
4192 5953
4192 7164
4192 7406
4193 7423
4194 7042
4195 8170
4196 7360
4197 7873
4198 6550
4199 4199
4199 4572
4199 4654
4199 4813
4199 4943
4199 5198
4199 5232
4199 5273
4199 5348
4199 5593
4199 5606
4199 5760
4199 5885
4199 5953
4199 6032
4199 6082
4199 6090
4199 6184
4199 6208
4199 6339
4199 6406
4199 6454
4199 6632
4199 6887
4199 6915
4199 7011
4199 7080
4199 7088
4199 7164
4199 7197
4199 7276
4199 7286
4199 7292
4199 7355
4199 7360
4199 7387
4199 7395
4199 7406
4199 7541
4199 7589
4199 7632
4199 7683
4199 7719
4199 7817
4199 7824
4199 7855
4199 8047
4199 8109
4199 8123
4199 8162
4199 8170
4202 5181
4204 6779
4204 7034
4204 7346
4207 5800
4207 6414
4207 7492
4209 7661
4210 7245
4210 7822
4211 6519
4211 7383
4216 5593
4216 6705
4216 6735
4216 6939
4216 7011
4216 7042
4216 7276
4216 7684
4216 7691
4216 7720
4216 7824
4216 7855
4216 7943
4216 7999
4216 8002
4216 8047
4216 8109
4216 8162
4217 4217
4218 6616
4220 6229
4220 6409
4220 6791
4220 7212
4222 4804
4222 5854
4222 6009
4222 6028
4222 6110
4222 6158
4222 7012
4223 4416
4223 4623
4223 4641
4223 4734
4223 4770
4223 4773
4223 4824
4223 4966
4223 5071
4223 5126
4223 5265
4223 5308
4223 5326
4223 5342
4223 5383
4223 6160
4223 6267
4223 6372
4223 6573
4223 6587
4223 6654
4223 6705
4223 6735
4223 6874
4223 6937
4223 6939
4223 6941
4223 6943
4223 6946
4223 6951
4223 6966
4223 7011
4223 7021
4223 7124
4223 7188
4223 7235
4223 7276
4223 7638
4223 7688
4223 7691
4223 7998
4223 8014
4223 8197
4224 4588
4224 4876
4224 4878
4224 4957
4224 5006
4224 5127
4224 6390
4224 6801
4224 7131
4224 7210
4224 7625
4224 7664
4224 7744
4224 7894
4224 8141
4225 6833
4226 5800
4227 4496
4227 6080
4227 6984
4227 7177
4227 7954
4228 4228
4228 4710
4229 7011
4229 7276
4229 7691
4229 8109
4229 8162
4230 4259
4230 4397
4230 4416
4230 4527
4230 4539
4230 4641
4230 4991
4230 5212
4230 5342
4230 5373
4230 5383
4230 5427
4230 6096
4230 6791
4230 6938
4230 6939
4230 6943
4230 7072
4230 7239
4230 7385
4230 7485
4230 7690
4230 7777
4230 7998
4231 5953
4231 6145
4231 6383
4232 7732
4233 4762
4233 5773
4233 6383
4233 7034
4234 4300
4234 5697
4234 5719
4235 4519
4235 5282
4235 5586
4237 5998
4237 7124
4237 7520
4237 7704
4238 5253
4240 5524
4245 7292
4245 7656
4248 4249
4248 4443
4248 4610
4248 4714
4248 5095
4248 5164
4248 5824
4248 5843
4248 6299
4248 6392
4248 6414
4248 6724
4248 7065
4248 7122
4248 7246
4248 8015
4249 4445
4249 4733
4249 4873
4249 4983
4249 5026
4249 5066
4249 5396
4249 5546
4249 5674
4249 5839
4249 6002
4249 6211
4249 6300
4249 6381
4249 6683
4249 6802
4249 7332
4249 7506
4249 7528
4249 7727
4251 6833
4253 4253
4253 4399
4253 5816
4253 6407
4253 7055
4255 5638
4255 5816
4256 7900
4257 5296
4257 7283
4257 7402
4258 7733
4259 4586
4259 5566
4259 6908
4259 7276
4261 6226
4262 4489
4263 7610
4265 5525
4265 7522
4266 4399
4266 7091
4266 7276
4266 8109
4266 8162
4267 5237
4267 7360
4267 7817
4268 4477
4268 6536
4268 7210
4269 5515
4270 4422
4270 6433
4271 4773
4271 7459
4273 4303
4273 4532
4273 5373
4273 5632
4273 5698
4273 5802
4273 7588
4273 8165
4276 5106
4276 6141
4277 7011
4278 6625
4278 7391
4278 7453
4278 8111
4279 4279
4279 4696
4279 4773
4279 4778
4279 4887
4279 5308
4279 5914
4279 5937
4279 5990
4279 6311
4279 6625
4279 7190
4279 7217
4279 7364
4279 7491
4280 5996
4281 4586
4281 6162
4282 5130
4284 4600
4284 5067
4284 5171
4284 5956
4284 6259
4284 6696
4284 7448
4286 5831
4286 6036
4286 7545
4287 5996
4288 5346
4288 5566
4289 4992
4290 4773
4290 7161
4290 7190
4290 7587
4290 7788
4291 4346
4291 4356
4291 4393
4291 4654
4291 4661
4291 4684
4291 4696
4291 5004
4291 5005
4291 5383
4291 5645
4291 5661
4291 5735
4291 5946
4291 6009
4291 6134
4291 6372
4291 6622
4291 6656
4291 6735
4291 6748
4291 6938
4291 7112
4291 7161
4291 7191
4291 7264
4291 7276
4291 7398
4291 7473
4291 7501
4291 7532
4291 7587
4291 7687
4291 7824
4291 7935
4291 7998
4293 4990
4293 5771
4293 5957
4293 6724
4293 7902
4294 4296
4294 4488
4294 4578
4294 4755
4294 5207
4294 5342
4294 5391
4294 5439
4294 6048
4294 6367
4294 6374
4294 6428
4294 7193
4294 7297
4294 7347
4294 7458
4294 7515
4294 7596
4294 7597
4294 7653
4294 7686
4294 7857
4294 7870
4294 7897
4294 8188
4295 6381
4296 4296
4296 5291
4296 5308
4296 5391
4296 8188
4299 5824
4299 6866
4299 7246
4301 5461
4301 5800
4301 5858
4301 6089
4301 6140
4302 4586
4303 4477
4303 5105
4303 5946
4303 6080
4303 6374
4303 6477
4303 6625
4303 6971
4303 7562
4303 7833
4304 5009
4304 5549
4304 6240
4304 7553
4304 7698
4304 8038
4306 7011
4306 7592
4307 4869
4307 5308
4307 6530
4309 6651
4310 6915
4310 8069
4311 5167
4312 5097
4312 6409
4312 6975
4312 7214
4313 4644
4313 6853
4316 6325
4317 4399
4318 7042
4319 6111
4319 6498
4320 4397
4320 5660
4320 6815
4320 7265
4320 7610
4322 4326
4322 7890
4323 4594
4325 4445
4325 4705
4325 5197
4325 5352
4325 7727
4326 5026
4326 5053
4326 6053
4326 6598
4326 7181
4326 7676
4326 7705
4326 8124
4327 6791
4327 8016
4328 5467
4328 7034
4328 7346
4329 4774
4329 5055
4329 5702
4329 6374
4329 7082
4330 4330
4330 5498
4330 5702
4331 4918
4331 5062
4331 5929
4331 6244
4331 6801
4331 7012
4331 7243
4332 7716
4334 6990
4338 7012
4340 4470
4341 4341
4341 4399
4341 6424
4342 5498
4342 5726
4343 6966
4343 7011
4344 7938
4345 4838
4345 5152
4346 4654
4346 4778
4346 5308
4346 5802
4346 6158
4346 7947
4346 8131
4346 8135
4346 8150
4347 4484
4347 4486
4347 4586
4347 4661
4347 4721
4347 4736
4347 4778
4347 4906
4347 4966
4347 5291
4347 5562
4347 5634
4347 5661
4347 5980
4347 6162
4347 6577
4347 6716
4347 7012
4347 7172
4347 7473
4347 7840
4347 7900
4347 7960
4347 8013
4347 8182
4348 4349
4348 4443
4348 4463
4348 4686
4348 4714
4348 4870
4348 4947
4348 4950
4348 4958
4348 5026
4348 5085
4348 5095
4348 5136
4348 5240
4348 5476
4348 5507
4348 5610
4348 5627
4348 5632
4348 5646
4348 5726
4348 5771
4348 5831
4348 6036
4348 6111
4348 6155
4348 6172
4348 6248
4348 6299
4348 6349
4348 6414
4348 6468
4348 6496
4348 6563
4348 6598
4348 6607
4348 6649
4348 6704
4348 6739
4348 6755
4348 6799
4348 6904
4348 6948
4348 6949
4348 7013
4348 7097
4348 7122
4348 7132
4348 7284
4348 7290
4348 7481
4348 7553
4348 7605
4348 7608
4348 7733
4348 7755
4348 7856
4348 7929
4348 7937
4348 8029
4348 8124
4348 8175
4349 7034
4349 7346
4349 7747
4350 5329
4351 4351
4354 4397
4354 4417
4354 4586
4354 5015
4354 5130
4354 5218
4354 5462
4354 6012
4354 6325
4354 6613
4354 6634
4354 6874
4354 7015
4354 7072
4354 7167
4354 7276
4354 7706
4354 8144
4354 8168
4356 4526
4356 4543
4356 4565
4356 4612
4356 4811
4356 4812
4356 4833
4356 4991
4356 5383
4356 5496
4356 5753
4356 5802
4356 5838
4356 5854
4356 5885
4356 5952
4356 6024
4356 6090
4356 6096
4356 6145
4356 6404
4356 6852
4356 6854
4356 6883
4356 6885
4356 6928
4356 6959
4356 6964
4356 6965
4356 6967
4356 6970
4356 7011
4356 7226
4356 7265
4356 7276
4356 7387
4356 7400
4356 7478
4356 7491
4356 7570
4356 7591
4356 7670
4356 7684
4356 7720
4356 7794
4356 7822
4356 7934
4356 7937
4356 7941
4356 7992
4356 7999
4356 8109
4356 8162
4357 5507
4357 6496
4358 5830
4358 8123
4360 4661
4360 5216
4360 5269
4360 6208
4360 6266
4360 7555
4361 4437
4362 6152
4363 4472
4363 6297
4366 4564
4366 5953
4366 8128
4367 4584
4367 8213
4368 4533
4368 4586
4368 4604
4368 4788
4368 5291
4368 5408
4368 5713
4368 5790
4368 6073
4368 6162
4368 6209
4368 6517
4368 6577
4368 6621
4368 6632
4368 6853
4368 7015
4368 7160
4368 7185
4368 7212
4368 7360
4368 7575
4368 7648
4368 7840
4368 8004
4368 8099
4369 7011
4369 7276
4370 4511
4370 4950
4370 5020
4370 5197
4370 6271
4370 6739
4370 7621
4370 7929
4371 5739
4371 6175
4372 7034
4374 4452
4375 7011
4375 7042
4375 7080
4375 7276
4375 7632
4375 7684
4375 7688
4375 7720
4375 7999
4376 7592
4377 4446
4377 4502
4377 5124
4378 4655
4378 4940
4378 4993
4378 5043
4378 5198
4378 5873
4378 6882
4378 7373
4378 7541
4379 5546
4379 6218
4379 6739
4379 7025
4379 7271
4379 8062
4380 6111
4380 7332
4381 7523
4383 4715
4383 5454
4383 5674
4385 4397
4385 4755
4385 5291
4385 5391
4385 7276
4385 7788
4386 7778
4387 4600
4387 4714
4387 5171
4387 5284
4387 5535
4387 5646
4387 5894
4387 6053
4387 6140
4387 6259
4387 7772
4388 7276
4388 8109
4388 8162
4389 6204
4392 7691
4393 5735
4393 6245
4393 6311
4394 4532
4394 6270
4394 7281
4395 7040
4395 7127
4395 7190
4395 8223
4396 4992
4396 5216
4397 4527
4397 4688
4397 4706
4397 4734
4397 4939
4397 5004
4397 5265
4397 5391
4397 5395
4397 5433
4397 5487
4397 5571
4397 5693
4397 5753
4397 5918
4397 5921
4397 6165
4397 6266
4397 6348
4397 6372
4397 6525
4397 6599
4397 6710
4397 6780
4397 6944
4397 7207
4397 7235
4397 7387
4397 7398
4397 7476
4397 7546
4397 7547
4397 7548
4397 7555
4397 7691
4397 7709
4397 7719
4397 7976
4397 8003
4397 8017
4397 8091
4397 8149
4397 8151
4397 8199
4398 4445
4398 4631
4398 4729
4398 5454
4398 5477
4398 5674
4398 6183
4398 6211
4398 6381
4398 7013
4398 7045
4398 7383
4398 7529
4398 7727
4398 7747
4399 4404
4399 4447
4399 4481
4399 4509
4399 4513
4399 4585
4399 4586
4399 4623
4399 4672
4399 4707
4399 4717
4399 4740
4399 4810
4399 4821
4399 4823
4399 4834
4399 4874
4399 4885
4399 5080
4399 5084
4399 5119
4399 5127
4399 5150
4399 5171
4399 5195
4399 5216
4399 5262
4399 5279
4399 5291
4399 5308
4399 5329
4399 5379
4399 5391
4399 5400
4399 5410
4399 5413
4399 5433
4399 5434
4399 5519
4399 5533
4399 5572
4399 5586
4399 5645
4399 5678
4399 5690
4399 5704
4399 5762
4399 5838
4399 5854
4399 5906
4399 5910
4399 5929
4399 5951
4399 5997
4399 6050
4399 6062
4399 6125
4399 6132
4399 6157
4399 6328
4399 6343
4399 6375
4399 6410
4399 6426
4399 6455
4399 6538
4399 6579
4399 6628
4399 6631
4399 6633
4399 6636
4399 6640
4399 6666
4399 6682
4399 6685
4399 6706
4399 6711
4399 6735
4399 6740
4399 6743
4399 6753
4399 6779
4399 6842
4399 6878
4399 6883
4399 6885
4399 6927
4399 6938
4399 6941
4399 6956
4399 6967
4399 6976
4399 6984
4399 7015
4399 7035
4399 7039
4399 7047
4399 7055
4399 7112
4399 7190
4399 7212
4399 7213
4399 7234
4399 7243
4399 7265
4399 7276
4399 7286
4399 7287
4399 7360
4399 7413
4399 7420
4399 7464
4399 7467
4399 7483
4399 7497
4399 7501
4399 7508
4399 7554
4399 7562
4399 7585
4399 7587
4399 7596
4399 7597
4399 7607
4399 7610
4399 7677
4399 7687
4399 7689
4399 7716
4399 7772
4399 7775
4399 7802
4399 7857
4399 7858
4399 7870
4399 7897
4399 7912
4399 7922
4399 7927
4399 7934
4399 7939
4399 7960
4399 7976
4399 7978
4399 7989
4399 8037
4399 8047
4399 8068
4399 8082
4399 8103
4399 8137
4399 8139
4399 8141
4399 8174
4399 8217
4402 6628
4402 8137
4404 6748
4404 7128
4404 7167
4404 7190
4404 7834
4405 4946
4406 5245
4406 6111
4407 5772
4407 6788
4407 7723
4407 7761
4408 6267
4409 5012
4409 5445
4409 6596
4409 7477
4410 7080
4410 7276
4411 7034
4412 7331
4415 4586
4416 4623
4416 4696
4416 4755
4416 4801
4416 4945
4416 4949
4416 5126
4416 5253
4416 5391
4416 5484
4416 5610
4416 5757
4416 5785
4416 5835
4416 6110
4416 6279
4416 6319
4416 6380
4416 6573
4416 6611
4416 6625
4416 6705
4416 6829
4416 6943
4416 6946
4416 6966
4416 7072
4416 7116
4416 7188
4416 7190
4416 7235
4416 7321
4416 7596
4416 7597
4416 7670
4416 7689
4416 7690
4416 7782
4416 7839
4416 7857
4416 7870
4416 7897
4416 7935
4416 7973
4416 7990
4416 7998
4417 6915
4418 5552
4418 6031
4418 6111
4419 4689
4419 5726
4420 6158
4420 6710
4420 7438
4421 6739
4422 4501
4422 5674
4422 6381
4422 6634
4423 4929
4423 5164
4423 5657
4423 5680
4423 5843
4423 6248
4423 6299
4423 6486
4423 6843
4423 6866
4423 8033
4424 7276
4425 4913
4427 4991
4428 7934
4429 4543
4429 6573
4429 6686
4429 6939
4429 6966
4429 6976
4429 7011
4429 7080
4429 7403
4429 7632
4429 7650
4429 7651
4429 7683
4429 7691
4429 7817
4429 7822
4429 7824
4429 8109
4429 8162
4430 4734
4431 4804
4431 5216
4431 5816
4431 5953
4431 6621
4431 7015
4431 7554
4431 7802
4431 8142
4432 4655
4432 7080
4432 7140
4432 8047
4432 8109
4432 8162
4433 6900
4433 7292
4434 4434
4434 6144
4434 6565
4434 7467
4436 4773
4437 5308
4437 7190
4437 7230
4437 7292
4437 7425
4437 7968
4437 8151
4438 7491
4439 5133
4439 5171
4439 5478
4439 5601
4439 5771
4439 5800
4439 5957
4439 6004
4439 6248
4439 6349
4439 6432
4439 6486
4439 6496
4439 6724
4439 6949
4439 7003
4439 7041
4439 7045
4439 7090
4439 7122
4439 7125
4439 7408
4439 7693
4439 7755
4439 7767
4439 7860
4439 7929
4439 8123
4441 4947
4441 5169
4441 6262
4441 7126
4441 7181
4442 4826
4442 5173
4442 5365
4442 5661
4442 6110
4442 6125
4442 6763
4442 7268
4442 7610
4442 7631
4443 4445
4443 4689
4444 4444
4444 7561
4445 4476
4445 4514
4445 4588
4445 4613
4445 4624
4445 4686
4445 4714
4445 4814
4445 4917
4445 4946
4445 4950
4445 5026
4445 5136
4445 5164
4445 5251
4445 5266
4445 5321
4445 5338
4445 5403
4445 5461
4445 5478
4445 5489
4445 5549
4445 5595
4445 5601
4445 5622
4445 5627
4445 5641
4445 5646
4445 5722
4445 5771
4445 5797
4445 5800
4445 5824
4445 5933
4445 5945
4445 5957
4445 6014
4445 6033
4445 6054
4445 6064
4445 6089
4445 6155
4445 6163
4445 6224
4445 6299
4445 6468
4445 6489
4445 6496
4445 6563
4445 6564
4445 6580
4445 6715
4445 6866
4445 6867
4445 6907
4445 6948
4445 7003
4445 7090
4445 7122
4445 7181
4445 7332
4445 7376
4445 7391
4445 7487
4445 7492
4445 7545
4445 7605
4445 7608
4445 7621
4445 7646
4445 7666
4445 7676
4445 7705
4445 7712
4445 7722
4445 7811
4445 7890
4445 7902
4445 8073
4445 8116
4445 8119
4445 8216
4447 4447
4447 6327
4447 6989
4447 7386
4447 7748
4447 8266
4448 5610
4449 4654
4450 4946
4450 4990
4450 5610
4450 5726
4450 6739
4450 6949
4450 7284
4450 7332
4450 7391
4450 7408
4450 7412
4450 7929
4450 8053
4451 5762
4451 6125
4451 6209
4453 6141
4453 6201
4454 6161
4455 5416
4455 6165
4455 7478
4455 7726
4457 5738
4459 6696
4460 6139
4460 7161
4460 7773
4461 7426
4462 5880
4463 5880
4463 7751
4464 4501
4464 4622
4464 4667
4464 4891
4464 5095
4464 5121
4464 5136
4464 5234
4464 5338
4464 5551
4464 5639
4464 6002
4464 6031
4464 6326
4464 6349
4464 6739
4464 6840
4464 7067
4464 7144
4464 7553
4464 7605
4464 7856
4464 8113
4464 8205
4466 5424
4466 5594
4468 4696
4468 4874
4468 5110
4468 5854
4468 6187
4468 6208
4468 6407
4468 6791
4468 7268
4468 7706
4468 8168
4470 6429
4470 7515
4471 4477
4471 5291
4471 5980
4473 5308
4473 5997
4473 7210
4473 7467
4474 5687
4474 7190
4475 4623
4475 4834
4475 5106
4475 5112
4475 5114
4475 5212
4475 5253
4475 5293
4475 5294
4475 5383
4475 5427
4475 5594
4475 5649
4475 6041
4475 6096
4475 6145
4475 6267
4475 6383
4475 6482
4475 6622
4475 6625
4475 6735
4475 6754
4475 6938
4475 6939
4475 7034
4475 7276
4475 7525
4475 7782
4475 7831
4475 7839
4475 7871
4475 7989
4475 8263
4476 4977
4476 5546
4476 7747
4477 5711
4477 5864
4477 6375
4477 6713
4477 6879
4477 7129
4477 7706
4477 7875
4477 8168
4478 7608
4479 7691
4481 4481
4481 5175
4481 5787
4481 7281
4481 7292
4481 8052
4482 4586
4482 4604
4482 5296
4482 5391
4482 6383
4482 6535
4482 7212
4483 4877
4483 7080
4483 7360
4484 4549
4485 4977
4485 5008
4485 5009
4485 5176
4485 5261
4485 5507
4485 6111
4485 6506
4485 7332
4485 7470
4486 5329
4486 5914
4486 7555
4487 5594
4487 6891
4487 6973
4487 7554
4487 7661
4487 7732
4489 4594
4489 4778
4489 4824
4489 4966
4489 5644
4489 5829
4489 6267
4489 6746
4489 7328
4489 7334
4489 7726
4490 6625
4490 6637
4490 7034
4491 4491
4491 4505
4491 4966
4491 5677
4491 7088
4491 7167
4491 7292
4491 7871
4492 5874
4494 4778
4494 6077
4494 6861
4494 7393
4496 5232
4496 5638
4496 5738
4496 5869
4496 6571
4496 6853
4496 6923
4496 7011
4496 7580
4497 5800
4498 4645
4498 7217
4498 7525
4500 4503
4500 6573
4500 7034
4500 8103
4500 8105
4501 4990
4501 5007
4501 5204
4501 5726
4501 6399
4501 6414
4501 7929
4502 4502
4502 6118
4502 7788
4503 8153
4504 6270
4505 4572
4505 5638
4505 6208
4505 6833
4506 5203
4506 6141
4506 6470
4507 5610
4507 5771
4507 5824
4507 6089
4507 7181
4507 7412
4507 7605
4507 7621
4508 7034
4509 4509
4509 6654
4509 6735
4509 7190
4509 7730
4511 4715
4511 4994
4511 5020
4511 5026
4511 5133
4511 5136
4511 5229
4511 5500
4511 5507
4511 5641
4511 5858
4511 6053
4511 6321
4511 6349
4511 6381
4511 6496
4511 6696
4511 6799
4511 6867
4511 7031
4511 7090
4511 7157
4511 7181
4511 7456
4511 7487
4511 7509
4511 7559
4511 7722
4511 7902
4511 8113
4511 8119
4511 8124
4512 4715
4512 4729
4512 5066
4512 5251
4512 5352
4512 5674
4512 6090
4512 6336
4512 6480
4512 6519
4512 6802
4512 7985
4513 4513
4513 4699
4513 5237
4513 5422
4513 6110
4513 6280
4513 7032
4513 7292
4514 4875
4514 4977
4515 4852
4515 5885
4515 6141
4515 7011
4515 7088
4515 7276
4515 7403
4515 7587
4515 7591
4515 7632
4515 7691
4515 7817
4515 7824
4515 8109
4515 8162
4516 4929
4516 5403
4516 5456
4516 5726
4516 5843
4516 6004
4516 6163
4516 6468
4516 6580
4516 6739
4516 7090
4516 7181
4516 7408
4516 7698
4516 7736
4516 7929
4516 7946
4516 7991
4516 8062
4516 8119
4517 7275
4519 4804
4519 5012
4519 5329
4519 5373
4519 5495
4519 5764
4519 5996
4519 6101
4519 6162
4519 6209
4519 6621
4519 7012
4519 7208
4519 7486
4519 7610
4519 8142
4521 7034
4521 7426
4522 6842
4523 4842
4523 6141
4523 7190
4525 5422
4525 5562
4525 5862
4526 4661
4526 5212
4526 6335
4526 6457
4526 6587
4526 6690
4526 6705
4526 6735
4526 6874
4526 6938
4526 6943
4526 7275
4526 7648
4526 7691
4526 7782
4526 7998
4526 8074
4527 5342
4527 5391
4527 5918
4527 6243
4527 6388
4527 6791
4527 7349
4527 8144
4528 7346
4529 6853
4531 5824
4531 7621
4532 5786
4532 8047
4533 4594
4533 4661
4533 4723
4533 5004
4533 5183
4533 5764
4533 5887
4533 5997
4533 6110
4533 6145
4533 6266
4533 6375
4533 6383
4533 6833
4533 7087
4533 7281
4533 7532
4533 8031
4533 8089
4534 7247
4536 6880
4536 7346
4536 7772
4537 6161
4537 6374
4538 4538
4538 5106
4538 5555
4538 6069
4538 7207
4538 7360
4539 4949
4539 5004
4539 5112
4539 5207
4539 5650
4539 6096
4539 6162
4539 6791
4539 6946
4539 7281
4540 5342
4540 7235
4540 7998
4541 7447
4542 5380
4543 4543
4543 4811
4543 5505
4543 5558
4543 5753
4543 5838
4543 6852
4543 6883
4543 6885
4543 6928
4543 6930
4543 6939
4543 6964
4543 6965
4543 6966
4543 6967
4543 6970
4543 6976
4543 7011
4543 7021
4543 7080
4543 7226
4543 7265
4543 7276
4543 7321
4543 7387
4543 7395
4543 7591
4543 7632
4543 7650
4543 7684
4543 7687
4543 7689
4543 7691
4543 7719
4543 7720
4543 7759
4543 7817
4543 7819
4543 7822
4543 7824
4543 7927
4543 7934
4543 7999
4543 8003
4543 8047
4543 8109
4543 8162
4543 8170
4544 7047
4545 4706
4545 4736
4545 4795
4545 4943
4545 5046
4545 5455
4545 5594
4545 5830
4545 7235
4545 7237
4545 7564
4547 7438
4548 6654
4548 6925
4548 6939
4548 6946
4551 6739
4552 6656
4553 6424
4554 6141
4557 5676
4557 6930
4557 7011
4557 7080
4557 7276
4557 7632
4557 7684
4557 7720
4557 7822
4557 7824
4557 7927
4557 8109
4557 8162
4558 4991
4560 6276
4560 7193
4560 7223
4560 7385
4561 5800
4562 6632
4562 7360
4563 4947
4563 6468
4563 7890
4564 7042
4565 4943
4565 5383
4565 5505
4565 5660
4565 5676
4565 5753
4565 5905
4565 6573
4565 6587
4565 6735
4565 6874
4565 6930
4565 6939
4565 6941
4565 6976
4565 7011
4565 7080
4565 7088
4565 7276
4565 7403
4565 7491
4565 7587
4565 7591
4565 7592
4565 7632
4565 7683
4565 7687
4565 7689
4565 7691
4565 7759
4565 7824
4565 7927
4565 7935
4565 7963
4565 7998
4565 8047
4565 8109
4565 8162
4565 8170
4565 8245
4566 4769
4566 5138
4566 5208
4566 5560
4567 5568
4568 4804
4568 6270
4568 7386
4569 4586
4569 5340
4569 7562
4570 5680
4570 5740
4570 6129
4570 6349
4570 6580
4570 7003
4570 7419
4571 5328
4572 4654
4572 4878
4572 5490
4572 5573
4572 5612
4572 5638
4572 5693
4572 5785
4572 5802
4572 5873
4572 5953
4572 6028
4572 6032
4572 6082
4572 6101
4572 6158
4572 6374
4572 6406
4572 6456
4572 6507
4572 6545
4572 6651
4572 7164
4572 7251
4572 7406
4572 7589
4572 7900
4572 8123
4573 4964
4573 7704
4574 4968
4574 5678
4574 5800
4574 6053
4574 6349
4574 7332
4574 7408
4574 7553
4574 7811
4574 8066
4576 5195
4576 7034
4577 4789
4577 7346
4578 4778
4578 4793
4578 4943
4578 4966
4578 5050
4578 5138
4578 5139
4578 5379
4578 5466
4578 5735
4578 5865
4578 5894
4578 6311
4578 6393
4578 6625
4578 6929
4578 7095
4578 7096
4578 7154
4578 7237
4578 7263
4578 7264
4578 7360
4578 7391
4578 7467
4578 7491
4578 7587
4578 8099
4580 5056
4580 5093
4580 5110
4580 5932
4580 7011
4580 7080
4580 7184
4580 7248
4580 7276
4580 7281
4580 7632
4580 7746
4580 7817
4580 7822
4580 7824
4580 8047
4580 8170
4582 4670
4582 4951
4582 5391
4582 5523
4582 7069
4582 7212
4584 5366
4584 5661
4584 5953
4584 6656
4584 6695
4585 4585
4585 8217
4586 4635
4586 4653
4586 4660
4586 4706
4586 4710
4586 4712
4586 4755
4586 4804
4586 4806
4586 4874
4586 4894
4586 4921
4586 4943
4586 4997
4586 5004
4586 5012
4586 5018
4586 5046
4586 5050
4586 5056
4586 5108
4586 5110
4586 5138
4586 5166
4586 5168
4586 5205
4586 5219
4586 5220
4586 5244
4586 5254
4586 5262
4586 5308
4586 5393
4586 5430
4586 5436
4586 5462
4586 5483
4586 5484
4586 5523
4586 5555
4586 5693
4586 5757
4586 5785
4586 5789
4586 5802
4586 5854
4586 5867
4586 5914
4586 5927
4586 5953
4586 5997
4586 6039
4586 6048
4586 6050
4586 6081
4586 6108
4586 6110
4586 6187
4586 6255
4586 6278
4586 6280
4586 6289
4586 6304
4586 6315
4586 6344
4586 6367
4586 6372
4586 6383
4586 6393
4586 6406
4586 6415
4586 6433
4586 6453
4586 6473
4586 6477
4586 6483
4586 6500
4586 6570
4586 6634
4586 6701
4586 6727
4586 6739
4586 6760
4586 6770
4586 6793
4586 6898
4586 6916
4586 6927
4586 7015
4586 7032
4586 7096
4586 7106
4586 7154
4586 7164
4586 7191
4586 7244
4586 7248
4586 7268
4586 7281
4586 7287
4586 7350
4586 7366
4586 7369
4586 7406
4586 7413
4586 7431
4586 7463
4586 7467
4586 7483
4586 7515
4586 7555
4586 7562
4586 7610
4586 7616
4586 7634
4586 7664
4586 7671
4586 7732
4586 7785
4586 7788
4586 7838
4586 7841
4586 7865
4586 7871
4586 7895
4586 7900
4586 8004
4586 8013
4586 8016
4586 8084
4586 8089
4586 8158
4587 8142
4588 5674
4588 6031
4588 6355
4588 7383
4588 7553
4588 7727
4588 7801
4590 4891
4590 5271
4590 7011
4590 7276
4590 7332
4590 8109
4590 8162
4591 7360
4592 7011
4592 7276
4593 6791
4593 7707
4594 4594
4594 4712
4594 4773
4594 4778
4594 4793
4594 5373
4594 5593
4594 5764
4594 5790
4594 5816
4594 5830
4594 6209
4594 6793
4594 6915
4594 7386
4594 7587
4594 7592
4594 7731
4594 7855
4594 8123
4594 8174
4595 6053
4595 6414
4595 6759
4595 7801
4596 4858
4596 5762
4596 5764
4596 6383
4596 6632
4596 7264
4597 5015
4598 4598
4598 4615
4598 4815
4598 4927
4598 5780
4598 7166
4598 7228
4599 5008
4599 5234
4599 5240
4599 5454
4599 5622
4599 5674
4599 6031
4599 6111
4599 6218
4599 6381
4599 6802
4599 7045
4599 7332
4600 5724
4600 8140
4602 6634
4603 7034
4603 7040
4603 7127
4603 8223
4604 4793
4604 5802
4604 6415
4606 6866
4606 7290
4607 4607
4608 5291
4608 6209
4608 7840
4609 6096
4610 5176
4610 5546
4610 6689
4610 7506
4610 7518
4610 7570
4610 7927
4611 5824
4612 4770
4612 6587
4612 6842
4613 5066
4613 6218
4614 5824
4614 6954
4614 7003
4614 7733
4615 4615
4615 4927
4615 5243
4615 5780
4615 7033
4615 7166
4615 7228
4616 5834
4616 6191
4616 7418
4616 7636
4616 8002
4617 4688
4617 5487
4617 5802
4617 6393
4617 7277
4617 7832
4617 8049
4618 4618
4618 4773
4618 7178
4618 7483
4619 5263
4619 7011
4620 7346
4621 5816
4621 6162
4622 5066
4622 7553
4623 4696
4623 4736
4623 4793
4623 4846
4623 5004
4623 5112
4623 5152
4623 5156
4623 5594
4623 5764
4623 6124
4623 6160
4623 6162
4623 6209
4623 6267
4623 6328
4623 6372
4623 6654
4623 6685
4623 6705
4623 6709
4623 6874
4623 6939
4623 6946
4623 7071
4623 7188
4623 7196
4623 7275
4623 7381
4623 7562
4623 7661
4623 7670
4623 7823
4623 8067
4623 8070
4623 8139
4623 8263
4624 4977
4624 6802
4625 5296
4625 5376
4625 6853
4626 7291
4626 8016
4629 4793
4629 5383
4629 5952
4629 6383
4629 7555
4630 4667
4631 5171
4632 7034
4633 4859
4633 5110
4633 5701
4633 6263
4633 6548
4633 7223
4633 8049
4636 5738
4636 7656
4638 6739
4639 4712
4639 4723
4639 5046
4640 4653
4640 4736
4640 4755
4640 4804
4640 5012
4640 5265
4640 5405
4640 5854
4640 5914
4640 6889
4640 6946
4640 7561
4640 7731
4640 7831
4640 7842
4640 7913
4640 8103
4641 4770
4641 4991
4641 5016
4641 5114
4641 5126
4641 5253
4641 5265
4641 5274
4641 5326
4641 5383
4641 5405
4641 5492
4641 6102
4641 6160
4641 6372
4641 6573
4641 6625
4641 6911
4641 6938
4641 6941
4641 7072
4641 7188
4641 7235
4641 7276
4641 7467
4641 7596
4641 7597
4641 7680
4641 7687
4641 7689
4641 7773
4641 7839
4641 7848
4641 7857
4641 7870
4641 7897
4641 7935
4641 7998
4641 8197
4642 5801
4642 7178
4642 7217
4642 7381
4643 6779
4644 5802
4644 5953
4644 6379
4644 6992
4644 7012
4645 4712
4645 5715
4646 4646
4646 4859
4646 5644
4646 6625
4650 6075
4651 4883
4651 6625
4651 6735
4651 6930
4651 6939
4651 6946
4651 6976
4651 7276
4651 7321
4651 7591
4651 7625
4651 7632
4651 7687
4651 7688
4651 7691
4651 7824
4651 8003
4651 8109
4651 8162
4651 8197
4652 5066
4653 5012
4653 5098
4653 5370
4653 6685
4653 6716
4653 7158
4653 7292
4653 7360
4653 7592
4653 8139
4653 8220
4654 4723
4654 4876
4654 4907
4654 4909
4654 5002
4654 5108
4654 5110
4654 5187
4654 5220
4654 5232
4654 5346
4654 5357
4654 5536
4654 5606
4654 5757
4654 5763
4654 5785
4654 5802
4654 5896
4654 5929
4654 5953
4654 6032
4654 6082
4654 6187
4654 6208
4654 6279
4654 6339
4654 6375
4654 6390
4654 6406
4654 6454
4654 6550
4654 6614
4654 6711
4654 6756
4654 6792
4654 6827
4654 7140
4654 7153
4654 7162
4654 7191
4654 7203
4654 7206
4654 7243
4654 7255
4654 7257
4654 7276
4654 7286
4654 7352
4654 7358
4654 7582
4654 7589
4654 7596
4654 7597
4654 7625
4654 7677
4654 7748
4654 7857
4654 7870
4654 7897
4654 7976
4654 8087
4654 8143
4654 8148
4654 8202
4654 8266
4655 5110
4655 5462
4655 5757
4655 5802
4655 5929
4655 6101
4655 6428
4655 6439
4655 6731
4655 6769
4655 7409
4655 7625
4655 7847
4655 7904
4655 8183
4655 8192
4655 8231
4655 8254
4656 4656
4656 5956
4656 6259
4656 7224
4656 7823
4658 7034
4658 7346
4658 7558
4661 4661
4661 4723
4661 4736
4661 4755
4661 4793
4661 4804
4661 5032
4661 5046
4661 5342
4661 5413
4661 5764
4661 5816
4661 5914
4661 5927
4661 5928
4661 5995
4661 6090
4661 6110
4661 6145
4661 6158
4661 6162
4661 6208
4661 6270
4661 6383
4661 6793
4661 6908
4661 7012
4661 7015
4661 7281
4661 7400
4661 7406
4661 7463
4661 7562
4661 7706
4661 7937
4661 8089
4661 8123
4661 8168
4662 4876
4662 6634
4662 7047
4663 4663
4664 4783
4664 5713
4664 7594
4664 7948
4664 8010
4665 5518
4665 5595
4665 6389
4665 6696
4665 7090
4665 7500
4665 7553
4665 7698
4667 4713
4667 4714
4667 4913
4667 5171
4667 5183
4667 5489
4667 5601
4667 5627
4667 5726
4667 5740
4667 6100
4667 6180
4667 6299
4667 6336
4667 6704
4667 6724
4667 6739
4667 6866
4667 7181
4667 7332
4667 7498
4667 7608
4667 7621
4667 7646
4667 7811
4667 7890
4668 8109
4668 8162
4669 7394
4670 7292
4671 5824
4671 7080
4671 7276
4671 7999
4672 5701
4672 7549
4673 4792
4673 5171
4673 5480
4673 6053
4673 7204
4673 8058
4674 5046
4674 5462
4674 6188
4674 7276
4674 7292
4674 7587
4676 8023
4677 7161
4679 5749
4679 5762
4679 6791
4679 7264
4679 7592
4680 4685
4680 6241
4680 6352
4680 6842
4680 7214
4682 7011
4682 7178
4682 7292
4682 7587
4682 7773
4685 5237
4685 6188
4685 6409
4686 5066
4686 5261
4686 5338
4686 5507
4686 5546
4686 5880
4686 6330
4686 6506
4686 6802
4686 6930
4686 7276
4686 7307
4686 7332
4686 7391
4686 7684
4686 7720
4686 7727
4686 7817
4686 7824
4686 7985
4686 8047
4686 8109
4686 8162
4688 7011
4688 7360
4688 7632
4688 7684
4688 7720
4688 7822
4689 4990
4689 5498
4689 5646
4689 5843
4689 6033
4689 6248
4689 6414
4689 6468
4689 6605
4689 6843
4689 7025
4689 7045
4689 7412
4689 7605
4689 7733
4689 8062
4690 7346
4691 5996
4692 6801
4694 6842
4694 7055
4695 4773
4695 5308
4695 6524
4695 6656
4695 7381
4696 4770
4696 5211
4696 5212
4696 5326
4696 5642
4696 5979
4696 6328
4696 6372
4696 6383
4696 6613
4696 6634
4696 6654
4696 6735
4696 6939
4696 6966
4696 7071
4696 7072
4696 7264
4696 7276
4696 7292
4696 7321
4696 7381
4696 7561
4696 7587
4696 7596
4696 7597
4696 7691
4696 7857
4696 7870
4696 7897
4696 7989
4696 8036
4696 8109
4696 8162
4696 8170
4697 7190
4698 6906
4699 5762
4700 4821
4701 4878
4701 5185
4701 6110
4702 7034
4702 7346
4703 8142
4704 5083
4704 6137
4705 4891
4705 4977
4705 5086
4705 5622
4705 6111
4705 6381
4705 6506
4705 6689
4705 7529
4706 4723
4706 4793
4706 5071
4706 5126
4706 5291
4706 5515
4706 5816
4706 5830
4706 6090
4706 6162
4706 6282
4706 6587
4706 6622
4706 6634
4706 6654
4706 6754
4706 6784
4706 6791
4706 6874
4706 6889
4706 6938
4706 6939
4706 6946
4706 6990
4706 6997
4706 7167
4706 7190
4706 7276
4706 7491
4706 7688
4706 7689
4706 7691
4706 7839
4706 8111
4706 8123
4707 6328
4708 6374
4708 6870
4708 7034
4710 6141
4710 7592
4710 8263
4711 6978
4711 8184
4712 5220
4712 5709
4712 5866
4712 6125
4712 6184
4712 6379
4712 6417
4712 6627
4712 6651
4712 6854
4712 7047
4712 7164
4712 7214
4712 7360
4712 7571
4712 7694
4712 7788
4712 7805
4712 7839
4712 7891
4712 7960
4712 7976
4712 8099
4713 5266
4713 5454
4713 5498
4713 5646
4713 5674
4713 5726
4713 6111
4713 6381
4713 6723
4713 7383
4713 7555
4713 7607
4713 8012
4714 4722
4714 4934
4714 4939
4714 5008
4714 5066
4714 5197
4714 5234
4714 5507
4714 5600
4714 5807
4714 5839
4714 5843
4714 5880
4714 6330
4714 6381
4714 6683
4714 6809
4714 7461
4714 7500
4714 7506
4714 7569
4714 7747
4714 8062
4714 8175
4715 4929
4715 4947
4715 5053
4715 5338
4715 5456
4715 5489
4715 5546
4715 5632
4715 5726
4715 5858
4715 5951
4715 5957
4715 6248
4715 6299
4715 6321
4715 6336
4715 6349
4715 6399
4715 6496
4715 6715
4715 6724
4715 6739
4715 6767
4715 7003
4715 7122
4715 7181
4715 7246
4715 7332
4715 7408
4715 7460
4715 7492
4715 7608
4715 7646
4715 7929
4716 7346
4718 7732
4720 5291
4720 7389
4720 8115
4721 6383
4721 6791
4722 4814
4722 4888
4722 4960
4722 5026
4722 5284
4722 5549
4722 5595
4722 5646
4722 5726
4722 5797
4722 6211
4722 6468
4722 7041
4723 4773
4723 4943
4723 5112
4723 5262
4723 5291
4723 5336
4723 5637
4723 6347
4723 6383
4723 6477
4723 6511
4723 6517
4723 6577
4723 6836
4723 6925
4723 6990
4723 7029
4723 7047
4723 7276
4723 7396
4723 7483
4723 7536
4723 7788
4723 7817
4723 7824
4725 5342
4725 5835
4725 6939
4725 7011
4725 7080
4725 7276
4725 7670
4725 7689
4725 7927
4726 5372
4727 7734
4728 7062
4728 7072
4728 7096
4728 7730
4729 6867
4730 4730
4730 7080
4732 4929
4732 4950
4732 5632
4732 6248
4732 7408
4732 7456
4732 7957
4733 4811
4733 4990
4733 7080
4733 7412
4733 7684
4733 7720
4733 7824
4733 7902
4733 7927
4733 7999
4734 4734
4734 5112
4734 5391
4734 5559
4734 6625
4734 6685
4734 6705
4734 6874
4734 6943
4734 6966
4734 7147
4734 7190
4734 7381
4734 8017
4734 8068
4734 8139
4735 5977
4735 6601
4736 4773
4736 5004
4736 5050
4736 5212
4736 5222
4736 5265
4736 5291
4736 5308
4736 5342
4736 5661
4736 5709
4736 5977
4736 6587
4736 6656
4736 7096
4736 7167
4736 7190
4736 7235
4736 7287
4736 7840
4736 7935
4736 7960
4736 8151
4738 5356
4739 6634
4740 5329
4740 5373
4741 4773
4741 5336
4741 5342
4741 5562
4741 5859
4741 6538
4741 6654
4741 6939
4741 7117
4741 7190
4741 7252
4741 7360
4741 7381
4742 6779
4744 5249
4745 6141
4747 5391
4747 5420
4747 6408
4747 7625
4748 6550
4748 7164
4749 6620
4751 5586
4751 5874
4751 6661
4751 7438
4751 7562
4751 7735
4751 8214
4752 5296
4753 7190
4755 5151
4755 5212
4755 5348
4755 5874
4755 6440
4755 6915
4755 7276
4755 7360
4755 7881
4755 7976
4756 4858
4756 6382
4756 6997
4756 7242
4757 5233
4758 5232
4758 5738
4758 6550
4758 6745
4758 6995
4758 7082
4759 7097
4760 7011
4760 7080
4760 7684
4760 7720
4760 7824
4760 7999
4760 8170
4762 5250
4762 5805
4762 6838
4762 7563
4762 7783
4763 4929
4763 5726
4763 6580
4763 7045
4765 4773
4765 5370
4765 5379
4765 5709
4768 6694
4769 7429
4770 4846
4770 5515
4770 5571
4770 5864
4770 6096
4770 6749
4770 6946
4770 7186
4770 7478
4770 7596
4770 7597
4770 7632
4770 7649
4770 7670
4770 7686
4770 7691
4770 7857
4770 7870
4770 7897
4770 7986
4770 8003
4770 8207
4773 4804
4773 4823
4773 4861
4773 4924
4773 4930
4773 4943
4773 4991
4773 5102
4773 5214
4773 5296
4773 5313
4773 5328
4773 5355
4773 5422
4773 5433
4773 5521
4773 5594
4773 5745
4773 5802
4773 5830
4773 5873
4773 5874
4773 5924
4773 5962
4773 5972
4773 5996
4773 6000
4773 6004
4773 6116
4773 6161
4773 6263
4773 6325
4773 6374
4773 6407
4773 6428
4773 6440
4773 6621
4773 6691
4773 6793
4773 6837
4773 6990
4773 6996
4773 7022
4773 7091
4773 7092
4773 7208
4773 7218
4773 7463
4773 7478
4773 7525
4773 7563
4773 7706
4773 7761
4773 7825
4773 7937
4773 7976
4773 8123
4773 8168
4774 6925
4774 6929
4775 5996
4776 6791
4778 5046
4778 5166
4778 5237
4778 5313
4778 5697
4778 5830
4778 6125
4778 6162
4778 6208
4778 6238
4778 6341
4778 6388
4778 6510
4778 6548
4778 6621
4778 6870
4778 7015
4778 7197
4778 7212
4778 7400
4778 7469
4778 7555
4778 7562
4778 7706
4778 8004
4778 8158
4778 8168
4779 5562
4779 6666
4779 6754
4779 7217
4779 7292
4779 7907
4780 4780
4780 4863
4780 5124
4780 5154
4780 5175
4780 5482
4780 5696
4780 6308
4780 6347
4780 6671
4780 6903
4780 7866
4780 7909
4780 8104
4781 7850
4781 8125
4781 8208
4782 5785
4782 6391
4784 7217
4785 7276
4788 5166
4788 5572
4788 5762
4788 6208
4788 6633
4789 5168
4789 5505
4789 5708
4789 6805
4789 6828
4789 7124
4789 7395
4789 7564
4790 5996
4790 7292
4791 7520
4792 5171
4792 5284
4792 5831
4792 6248
4792 6259
4792 6658
4792 7095
4792 8255
4793 4966
4793 4997
4793 5004
4793 5050
4793 5342
4793 5379
4793 5515
4793 5571
4793 5660
4793 5661
4793 5757
4793 5953
4793 6096
4793 6305
4793 6339
4793 6411
4793 6484
4793 6573
4793 6656
4793 6675
4793 6705
4793 6748
4793 6754
4793 6810
4793 6938
4793 6939
4793 6941
4793 6987
4793 7190
4793 7235
4793 7264
4793 7292
4793 7398
4793 7491
4793 7691
4793 7759
4793 7871
4793 7935
4793 8149
4793 8197
4794 5171
4794 5824
4794 5843
4794 6299
4794 6580
4794 6623
4794 6762
4794 7890
4794 8062
4795 4795
4795 5291
4795 6656
4796 7275
4798 6346
4800 5012
4800 5015
4800 5566
4800 5802
4800 6162
4800 6270
4800 6870
4802 5291
4802 6424
4802 6718
4802 7615
4802 8264
4803 6842
4803 7360
4804 4909
4804 5108
4804 5198
4804 5211
4804 5218
4804 5332
4804 5342
4804 5348
4804 5449
4804 5472
4804 5589
4804 5638
4804 5661
4804 5751
4804 5762
4804 5980
4804 5997
4804 6173
4804 6209
4804 6287
4804 6323
4804 6339
4804 6383
4804 6464
4804 6517
4804 6535
4804 6651
4804 6716
4804 6784
4804 6836
4804 6841
4804 6898
4804 6900
4804 6915
4804 6997
4804 7001
4804 7011
4804 7015
4804 7080
4804 7088
4804 7191
4804 7237
4804 7244
4804 7264
4804 7268
4804 7276
4804 7281
4804 7360
4804 7413
4804 7473
4804 7485
4804 7576
4804 7587
4804 7648
4804 7788
4804 7840
4804 7871
4804 8047
4804 8109
4804 8149
4804 8162
4804 8182
4804 8242
4807 6372
4807 7587
4808 7190
4808 7275
4811 4822
4811 4852
4811 4943
4811 5505
4811 5885
4811 6930
4811 6967
4811 6976
4811 7011
4811 7080
4811 7088
4811 7171
4811 7276
4811 7387
4811 7403
4811 7491
4811 7591
4811 7632
4811 7649
4811 7684
4811 7687
4811 7688
4811 7689
4811 7691
4811 7719
4811 7720
4811 7759
4811 7794
4811 7817
4811 7819
4811 7824
4811 7927
4811 7941
4811 7999
4811 8003
4811 8047
4811 8109
4811 8162
4811 8170
4812 4822
4812 4943
4812 5370
4812 5416
4812 5577
4812 5753
4812 5838
4812 6407
4812 6579
4812 6852
4812 6883
4812 6885
4812 6928
4812 6964
4812 6966
4812 6967
4812 6970
4812 6972
4812 6976
4812 7011
4812 7021
4812 7080
4812 7120
4812 7167
4812 7171
4812 7226
4812 7276
4812 7386
4812 7387
4812 7403
4812 7518
4812 7570
4812 7591
4812 7628
4812 7649
4812 7650
4812 7683
4812 7690
4812 7691
4812 7696
4812 7719
4812 7794
4812 7817
4812 7819
4812 7824
4812 7927
4812 7934
4812 7950
4812 7981
4812 8003
4812 8047
4812 8109
4812 8110
4812 8162
4812 8170
4813 5987
4813 7011
4813 7042
4813 7406
4813 7592
4813 7632
4813 7684
4813 7720
4813 7817
4813 7898
4813 8170
4814 4850
4814 4977
4814 5349
4814 5363
4814 5396
4814 5454
4814 5546
4814 5563
4814 5726
4814 5880
4814 6109
4814 6111
4814 6381
4814 6414
4814 6506
4814 6521
4814 6683
4814 6785
4814 7492
4814 7569
4814 7985
4815 7275
4815 7430
4815 7823
4821 7587
4822 4884
4822 5370
4822 5558
4822 5784
4822 5838
4822 6341
4822 6382
4822 6852
4822 6854
4822 6883
4822 6885
4822 6967
4822 6972
4822 7011
4822 7080
4822 7276
4822 7490
4822 7824
4822 7934
4822 7992
4822 8047
4822 8109
4822 8162
4823 4823
4823 5572
4823 5764
4823 6633
4823 8255
4824 6095
4825 7083
4825 8152
4826 5007
4826 7042
4826 7236
4827 5880
4827 6799
4828 6634
4829 7013
4831 5020
4833 5126
4833 5212
4833 5291
4833 5874
4833 6209
4833 6267
4833 6401
4833 6740
4833 6939
4833 7047
4833 7072
4833 7237
4833 7587
4833 7740
4833 7871
4833 8071
4834 4991
4834 5952
4834 6145
4834 6829
4834 6874
4834 6943
4834 7321
4834 7491
4834 7632
4834 7691
4834 7822
4834 7937
4838 7436
4840 6739
4842 5764
4842 5950
4842 6382
4843 4843
4843 4946
4843 5234
4843 5456
4843 5546
4843 5771
4843 5843
4843 5880
4843 6025
4843 6033
4843 6248
4843 6498
4843 6580
4843 6683
4843 6866
4843 7122
4843 7506
4843 7705
4844 7112
4846 5342
4846 6573
4846 6634
4846 7235
4846 7276
4846 7381
4846 7680
4846 7839
4846 7935
4846 7963
4846 8197
4847 5772
4850 5726
4850 5800
4853 7190
4858 5661
4858 6278
4858 6304
4858 6375
4858 6557
4863 5762
4863 6388
4863 6791
4864 7621
4865 5874
4865 7523
4865 7542
4865 7544
4866 4929
4866 5456
4866 6468
4866 6849
4866 7346
4869 4985
4869 5110
4869 5638
4869 5802
4869 6243
4869 6304
4869 6375
4869 6911
4869 7281
4869 7467
4869 7555
4869 8013
4870 5020
4870 7456
4871 4950
4871 5164
4871 5622
4871 6089
4871 6739
4871 7646
4874 6779
4874 8123
4875 4929
4875 5601
4875 5743
4875 5858
4875 5867
4875 6381
4875 6414
4875 6489
4875 6563
4875 6580
4875 6907
4875 7045
4875 7391
4875 7419
4875 7621
4875 7703
4875 8119
4875 8216
4876 5536
4876 6355
4876 6793
4876 7210
4876 7656
4876 7822
4877 7386
4878 5080
4878 6114
4878 6269
4878 6579
4878 6792
4878 6801
4878 7788
4878 7939
4879 5610
4880 7457
4881 5814
4881 7408
4881 7767
4881 7860
4882 7276
4882 8047
4883 5106
4883 6644
4883 6991
4883 7625
4883 7839
4884 5383
4884 5885
4884 6024
4884 8013
4887 7920
4888 6852
4888 6854
4888 6883
4888 6928
4888 7600
4888 7937
4889 5296
4889 7034
4891 4929
4891 4946
4891 5489
4891 5498
4891 5824
4891 5877
4891 6163
4891 6248
4891 6704
4891 6739
4891 7181
4891 7332
4891 7456
4891 7605
4891 7733
4891 7736
4891 7929
4891 8062
4891 8124
4892 5065
4892 6661
4892 7217
4894 7463
4895 5036
4895 7937
4898 7011
4898 7080
4898 7276
4898 8109
4898 8162
4899 4899
4899 5313
4902 5212
4902 6209
4902 6596
4902 7167
4903 5874
4903 6236
4904 5627
4905 7005
4907 6184
4907 6379
4907 6694
4907 7042
4907 7208
4907 7726
4907 8142
4909 5594
4909 5764
4909 5874
4909 6116
4909 6162
4910 5790
4911 5771
4911 7192
4911 8053
4912 5007
4912 7824
4913 5290
4913 5695
4913 5956
4913 6248
4913 6259
4913 7391
4913 7850
4913 8125
4914 5874
4914 6939
4916 6505
4917 6802
4917 7100
4917 7727
4918 5691
4918 8142
4919 5996
4921 7587
4922 7394
4923 6180
4924 5080
4924 5735
4924 6071
4924 6625
4924 6877
4924 7034
4924 7161
4924 7276
4924 7574
4924 8094
4925 5735
4926 7011
4926 7080
4926 7276
4926 8109
4926 8162
4927 5780
4927 7422
4928 6809
4929 4977
4929 5121
4929 5192
4929 5272
4929 5396
4929 5507
4929 5674
4929 5880
4929 6109
4929 6183
4929 6218
4929 6476
4929 6785
4929 6802
4929 6922
4929 7276
4929 7361
4929 7985
4930 4930
4930 7190
4930 7217
4931 6857
4931 7687
4934 4977
4934 5771
4935 7076
4935 7167
4935 7190
4936 7346
4937 4939
4939 4994
4939 5026
4939 5120
4939 5153
4939 5266
4939 5310
4939 5478
4939 5518
4939 5601
4939 5641
4939 5771
4939 5933
4939 6014
4939 6140
4939 6268
4939 6349
4939 6414
4939 6563
4939 6696
4939 6867
4939 7393
4939 7487
4939 7681
4939 8053
4941 5738
4942 5678
4942 5738
4942 5814
4942 7346
4943 5315
4943 5329
4943 5764
4943 5838
4943 5953
4943 6162
4943 6382
4943 6440
4943 6573
4943 6578
4943 6852
4943 6883
4943 6928
4943 6964
4943 6965
4943 6967
4943 6970
4943 7011
4943 7080
4943 7088
4943 7190
4943 7257
4943 7265
4943 7276
4943 7491
4943 7591
4943 7632
4943 7688
4943 7719
4943 7794
4943 7817
4943 7822
4943 7824
4943 7927
4943 7934
4943 7981
4943 7992
4943 8047
4943 8109
4943 8162
4943 8170
4944 4944
4944 6525
4945 5763
4945 5838
4945 5874
4945 6368
4945 6571
4945 7340
4945 7691
4945 7934
4946 5087
4946 5507
4946 5546
4946 5563
4946 6111
4946 6381
4946 6592
4946 6845
4946 7332
4946 8062
4947 5026
4947 5087
4947 5221
4947 5234
4947 5552
4947 7751
4948 5854
4949 5016
4949 5835
4949 6160
4949 6625
4949 6735
4949 6874
4949 6943
4949 6946
4949 7188
4949 7276
4949 7670
4949 7687
4949 7998
4949 8197
4950 5066
4950 5136
4950 5454
4950 5464
4950 5546
4950 5552
4950 5726
4950 5788
4950 5807
4950 6002
4950 6053
4950 6129
4950 6185
4950 6336
4950 6452
4950 6480
4950 6592
4950 7144
4950 7159
4950 7552
4950 7751
4950 8113
4950 8164
4950 8175
4953 5802
4953 7141
4953 7281
4954 5723
4954 6315
4956 5306
4956 5697
4956 6080
4956 6304
4956 6870
4956 6984
4956 7012
4956 7055
4956 7406
4957 5342
4957 5764
4957 5874
4957 6162
4957 6632
4957 6842
4957 7210
4957 7276
4957 7592
4957 7920
4959 7958
4960 5171
4960 5762
4960 5872
4960 5956
4960 6248
4960 7275
4960 7453
4960 7533
4962 7292
4963 5264
4963 5701
4963 7549
4964 5832
4964 7408
4964 7637
4964 7722
4965 5646
4965 5771
4965 7097
4965 7733
4965 7902
4965 8119
4966 5511
4966 5854
4966 5874
4966 6162
4966 6270
4966 6325
4966 6621
4966 7091
4966 7335
4966 7976
4967 5291
4967 6916
4967 7360
4968 5454
4968 5674
4968 6634
4968 6728
4968 7383
4969 5678
4969 6259
4969 7562
4970 5463
4971 5472
4971 5761
4972 5929
4972 7012
4973 7394
4974 5874
4974 7670
4974 7937
4975 5291
4975 6141
4975 6382
4975 6716
4975 7281
4975 7587
4975 7840
4976 5212
4976 5946
4976 6656
4976 7483
4977 4990
4977 5078
4977 5171
4977 5266
4977 5338
4977 5456
4977 5464
4977 5468
4977 5498
4977 5602
4977 5610
4977 5622
4977 5632
4977 5641
4977 5646
4977 5680
4977 5771
4977 5797
4977 5883
4977 5933
4977 6033
4977 6053
4977 6087
4977 6089
4977 6180
4977 6224
4977 6259
4977 6320
4977 6321
4977 6349
4977 6414
4977 6432
4977 6486
4977 6496
4977 6563
4977 6574
4977 6724
4977 6767
4977 6949
4977 7041
4977 7065
4977 7090
4977 7122
4977 7125
4977 7224
4977 7246
4977 7332
4977 7343
4977 7372
4977 7376
4977 7393
4977 7394
4977 7408
4977 7412
4977 7419
4977 7492
4977 7517
4977 7545
4977 7608
4977 7646
4977 7937
4977 7946
4977 7985
4977 8029
4977 8119
4977 8237
4979 7394
4980 5697
4981 5112
4983 5161
4983 5824
4983 7276
4985 7691
4986 5816
4986 7788
4988 6075
4989 7292
4989 7499
4990 5008
4990 5066
4990 5234
4990 5352
4990 5546
4990 5880
4990 6330
4990 6431
4990 6683
4990 7332
4990 7492
4990 7569
4990 7727
4990 7957
4991 5071
4991 5331
4991 5344
4991 5517
4991 5610
4991 5642
4991 5786
4991 5835
4991 5885
4991 6017
4991 6160
4991 6335
4991 6372
4991 6573
4991 6621
4991 6654
4991 6705
4991 6735
4991 6823
4991 6939
4991 6999
4991 7072
4991 7188
4991 7287
4991 7345
4991 7360
4991 7381
4991 7466
4991 7554
4991 7590
4991 7596
4991 7597
4991 7689
4991 7691
4991 7782
4991 7837
4991 7857
4991 7870
4991 7897
4991 7935
4991 7989
4991 7998
4991 8036
4991 8068
4991 8071
4991 8074
4991 8086
4991 8197
4991 8263
4992 5084
4992 5166
4992 5254
4992 5291
4992 5408
4992 5472
4992 5661
4992 5696
4992 5727
4992 5749
4992 5750
4992 5751
4992 5754
4992 5762
4992 5856
4992 5996
4992 6022
4992 6080
4992 6106
4992 6280
4992 6596
4992 6614
4992 6891
4992 6912
4992 6925
4992 7214
4992 7237
4992 7264
4992 7305
4992 7464
4992 7562
4992 7630
4992 7840
4992 8004
4994 5197
4994 5674
4994 7727
4996 7276
4997 5130
4997 5566
4997 5572
4997 5874
4997 6633
4997 6791
4997 7091
4997 7706
4997 8168
4998 6843
4998 7929
4999 5862
4999 8109
4999 8162
5000 6722
5000 7656
5004 5126
5004 5146
5004 5186
5004 5346
5004 5661
5004 6160
5004 6162
5004 6177
5004 6267
5004 6625
5004 6634
5004 6654
5004 6735
5004 6938
5004 6946
5004 7281
5004 7360
5004 7532
5004 7782
5004 7839
5004 7848
5004 7871
5004 8123
5004 8197
5005 5291
5005 5308
5005 5342
5005 5761
5005 6634
5005 8145
5007 5239
5007 6235
5007 6381
5007 6468
5007 6519
5007 7088
5007 7393
5007 7733
5008 5026
5008 5489
5008 5771
5008 5911
5008 6866
5008 7041
5008 7246
5008 7394
5008 7408
5008 7902
5008 8119
5009 5095
5009 5164
5009 5171
5009 5602
5009 5831
5009 5957
5009 6259
5009 6468
5009 6496
5009 7332
5009 7929
5009 7937
5010 5237
5010 5761
5012 5183
5012 5291
5012 5329
5012 5466
5012 6244
5012 6267
5012 6280
5012 6651
5012 6816
5012 7012
5012 7148
5012 7172
5012 7268
5012 7473
5012 7527
5012 8185
5012 8221
5013 7191
5014 5329
5014 6423
5015 5225
5015 5291
5015 5348
5015 5449
5015 5661
5015 5834
5015 6071
5015 6707
5015 6763
5015 7276
5015 7473
5015 7636
5015 7690
5015 7822
5015 8054
5015 8056
5016 5998
5016 6625
5016 6939
5019 6103
5019 6832
5019 7034
5020 6111
5020 6155
5020 6598
5020 6699
5020 6704
5020 6739
5020 7605
5020 8113
5021 5021
5021 5851
5022 7553
5023 5761
5024 7012
5024 7079
5024 8123
5024 8158
5026 5121
5026 5136
5026 5197
5026 5234
5026 5324
5026 5352
5026 5454
5026 5478
5026 5549
5026 5622
5026 5641
5026 6211
5026 6218
5026 6299
5026 6330
5026 6381
5026 6496
5026 6659
5026 6802
5026 7383
5026 7412
5026 7453
5026 7509
5026 7698
5026 7747
5026 7811
5026 8001
5026 8205
5027 6791
5027 6900
5029 7034
5029 7346
5030 7394
5031 5610
5031 7500
5031 7605
5032 5291
5033 7034
5034 8013
5036 6631
5037 7208
5038 7346
5039 5039
5041 6735
5042 6632
5042 7732
5044 5644
5044 7334
5045 7663
5046 5150
5046 5211
5046 5291
5046 5333
5046 5408
5046 5480
5046 5567
5046 5589
5046 5676
5046 5946
5046 6141
5046 6339
5046 6375
5046 6383
5046 6393
5046 6517
5046 6613
5046 6632
5046 6656
5046 6842
5046 6874
5046 7011
5046 7012
5046 7015
5046 7071
5046 7160
5046 7190
5046 7191
5046 7243
5046 7244
5046 7276
5046 7292
5046 7360
5046 7473
5046 7576
5046 7587
5046 7630
5046 7840
5046 7871
5046 8091
5046 8170
5046 8199
5047 6939
5047 7190
5048 5852
5049 8067
5049 8070
5050 5373
5050 5566
5050 6090
5050 6096
5050 6162
5050 6791
5050 6938
5050 6946
5050 7091
5050 7276
5050 7591
5051 5342
5051 6267
5051 6695
5051 7984
5052 6141
5053 5197
5053 5454
5053 5546
5053 5726
5053 6002
5053 6218
5053 6785
5053 7383
5053 7553
5053 7727
5055 5469
5057 7360
5058 5058
5058 6421
5058 7299
5059 5785
5059 6496
5059 6739
5059 7246
5059 7727
5061 5187
5061 6208
5061 7012
5061 7292
5061 8031
5062 5062
5062 5914
5062 7281
5063 7275
5063 7823
5065 5065
5065 5253
5065 5348
5065 5484
5065 5571
5065 5593
5065 6082
5065 6165
5065 6186
5065 6418
5065 6464
5065 6488
5065 6664
5065 6713
5065 6988
5065 7032
5065 7350
5065 7571
5065 7773
5065 7855
5065 7898
5065 8002
5065 8089
5066 5078
5066 5095
5066 5136
5066 5240
5066 5444
5066 5595
5066 5646
5066 5717
5066 5722
5066 5877
5066 5933
5066 6129
5066 6207
5066 6230
5066 6336
5066 6392
5066 6414
5066 6445
5066 6480
5066 6496
5066 6563
5066 6704
5066 6739
5066 6843
5066 6907
5066 6935
5066 6948
5066 7003
5066 7012
5066 7045
5066 7246
5066 7391
5066 7408
5066 7492
5066 7567
5066 7605
5066 7646
5066 7733
5066 7755
5066 7764
5066 7890
5066 7937
5066 8015
5066 8216
5067 6259
5067 7090
5067 7372
5067 7408
5067 7902
5067 7929
5068 5068
5069 6336
5070 5070
5070 8172
5071 5391
5071 5422
5071 6096
5071 6124
5071 6198
5071 6791
5071 7091
5071 7555
5071 7661
5071 7848
5072 5785
5072 6208
5072 6721
5074 5253
5074 6421
5074 7299
5075 5216
5075 5572
5075 5764
5075 6162
5075 6286
5075 6388
5075 6621
5075 6633
5077 7553
5078 5078
5078 5192
5078 5416
5078 5507
5078 5610
5078 6111
5078 6349
5078 6724
5078 6802
5078 6840
5078 7181
5078 7747
5078 7890
5078 8255
5079 5106
5080 5135
5080 5579
5080 5994
5080 5996
5080 6443
5080 6758
5080 7781
5082 5572
5082 6633
5082 6908
5084 5084
5084 5166
5084 5988
5084 6896
5084 7208
5084 7292
5084 7562
5084 7761
5084 8089
5086 5602
5086 5831
5086 6496
5086 6563
5086 7391
5086 7408
5086 7733
5087 5595
5087 5771
5087 6902
5087 7080
5087 7276
5087 7733
5087 7824
5089 6381
5089 6519
5089 7276
5090 7811
5091 6682
5092 7596
5092 7597
5092 7857
5092 7870
5092 7897
5093 8151
5094 7034
5095 5270
5095 5546
5095 5554
5095 5563
5095 5674
5095 6019
5095 6111
5095 6381
5095 6498
5095 6752
5095 7332
5095 7727
5095 8113
5098 5391
5098 5523
5098 6257
5098 6304
5098 6434
5098 6791
5098 7012
5098 7055
5098 7214
5098 8123
5100 8098
5102 5308
5102 5946
5102 7178
5102 7292
5102 7483
5102 8151
5103 7706
5103 7719
5103 8168
5104 5171
5104 6259
5104 7360
5105 5171
5105 5762
5105 5895
5105 5997
5105 6658
5106 5283
5106 5768
5106 5949
5106 6299
5106 7134
5106 7196
5106 7328
5106 7624
5106 8023
5106 8207
5107 5107
5108 5960
5108 6101
5108 6247
5108 6407
5108 6591
5108 6777
5108 7210
5108 7281
5108 7386
5108 7423
5108 7896
5108 8142
5108 8185
5110 5168
5110 5291
5110 5348
5110 5761
5110 5818
5110 5997
5110 6162
5110 6209
5110 6259
5110 6388
5110 6535
5110 6613
5110 6656
5110 6716
5110 6836
5110 6853
5110 6915
5110 7015
5110 7047
5110 7167
5110 7237
5110 7264
5110 7281
5110 7360
5110 7587
5110 7592
5110 7788
5110 7976
5110 8145
5111 7080
5111 7276
5111 7632
5111 7691
5111 7824
5112 5294
5112 5854
5112 5918
5112 6685
5112 6946
5112 7235
5112 7839
5112 8013
5112 8068
5112 8139
5113 5171
5113 5933
5113 6452
5113 6563
5113 6580
5113 7776
5114 6096
5114 6705
5114 6939
5114 7235
5114 7687
5116 8142
5117 6632
5117 6939
5117 7276
5118 6124
5119 5119
5119 6483
5119 6779
5119 7079
5119 7482
5119 7823
5120 5324
5120 7800
5121 5204
5121 5468
5121 5489
5121 5498
5121 5595
5121 5601
5121 5622
5121 5627
5121 5726
5121 5771
5121 5800
5121 5824
5121 6033
5121 6155
5121 6180
5121 6349
5121 6414
5121 6715
5121 6739
5121 7003
5121 7122
5121 7132
5121 7332
5121 7408
5121 7412
5121 7605
5121 7608
5121 7712
5121 7764
5121 7902
5124 7970
5125 5885
5125 7080
5126 5264
5126 5391
5126 5451
5126 5918
5126 5953
5126 6048
5126 6110
5126 6952
5126 6996
5126 7196
5126 7235
5126 7406
5126 7555
5126 7670
5126 7937
5127 5127
5127 5864
5128 7214
5130 5262
5130 5895
5130 6062
5130 6311
5130 6367
5130 6482
5130 6675
5130 6710
5130 6754
5130 6927
5130 7047
5130 7058
5130 7072
5130 7112
5130 7240
5130 7467
5130 7788
5130 8200
5131 5517
5131 5874
5131 7299
5132 6791
5133 5454
5133 5546
5133 5614
5133 5695
5133 6111
5133 6840
5133 7487
5133 7727
5133 7985
5134 7035
5135 5413
5135 6209
5135 6716
5136 5546
5136 6019
5136 6111
5136 6349
5136 6452
5136 6496
5136 6949
5136 7041
5136 7100
5136 7376
5136 7412
5136 7552
5136 7605
5136 7937
5138 5273
5138 5291
5138 6209
5138 6632
5138 7360
5138 7429
5138 8188
5140 5291
5141 6779
5141 7178
5142 5726
5142 5800
5142 6248
5142 6468
5142 6487
5142 6563
5142 7181
5142 7509
5142 7646
5142 7890
5142 8062
5144 5921
5144 5996
5144 6347
5144 6809
5144 7034
5144 7346
5144 7394
5146 5329
5146 6383
5146 7732
5148 6071
5148 6343
5148 6347
5148 7396
5148 7529
5148 7574
5149 7788
5150 6505
5151 5151
5151 7822
5152 5393
5154 5154
5154 7842
5154 7913
5156 7034
5158 7850
5158 8125
5161 5462
5161 6067
5162 5234
5164 5176
5164 5197
5164 5234
5164 5349
5164 5570
5164 6002
5164 6109
5164 6111
5164 6218
5164 6330
5164 6452
5164 6476
5164 6802
5164 7727
5164 7925
5164 8062
5165 5165
5165 6249
5166 5658
5166 5660
5166 5661
5166 5667
5166 5676
5166 5816
5166 6073
5166 6304
5166 6388
5166 6596
5166 6628
5166 6968
5166 7158
5166 7562
5166 7607
5166 8137
5167 6665
5167 6791
5168 5422
5168 5462
5168 5495
5168 5802
5168 5854
5168 5929
5168 5953
5168 6048
5168 6082
5168 6304
5168 7292
5168 7406
5168 7937
5169 5498
5169 7886
5171 5182
5171 5234
5171 5246
5171 5284
5171 5290
5171 5352
5171 5410
5171 5507
5171 5518
5171 5549
5171 5563
5171 5569
5171 5674
5171 5726
5171 5880
5171 6163
5171 6211
5171 6218
5171 6330
5171 6340
5171 6431
5171 6506
5171 6605
5171 6723
5171 7324
5171 7747
5171 7957
5171 8069
5171 8255
5173 5627
5174 5634
5174 6637
5174 6890
5176 5498
5176 5824
5176 5843
5176 5951
5176 7034
5176 7246
5176 7824
5177 6791
5177 7346
5177 7926
5178 6141
5181 5472
5181 7515
5182 5273
5182 5748
5182 5761
5182 5762
5182 5956
5182 6628
5182 6925
5182 7360
5182 7716
5182 8137
5183 6069
5183 7587
5183 7950
5184 6620
5186 7032
5187 6613
5187 7011
5187 7042
5187 7088
5187 7167
5187 7276
5187 7592
5187 7817
5187 7935
5187 8109
5187 8162
5189 5583
5192 5646
5192 6564
5192 6580
5192 6704
5192 6739
5192 7372
5192 7408
5192 7448
5192 7492
5192 7759
5192 7800
5192 8216
5193 8023
5194 5950
5195 5195
5195 7281
5195 8207
5197 5266
5197 5478
5197 5601
5197 5610
5197 5646
5197 5740
5197 5771
5197 5800
5197 5814
5197 5933
5197 5945
5197 6053
5197 6155
5197 6163
5197 6207
5197 6230
5197 6468
5197 6563
5197 6580
5197 6696
5197 6739
5197 6843
5197 6857
5197 6866
5197 6867
5197 6948
5197 7031
5197 7045
5197 7090
5197 7126
5197 7181
5197 7246
5197 7391
5197 7453
5197 7605
5197 7621
5197 7676
5197 7705
5197 7755
5197 7767
5197 7811
5197 7902
5197 7929
5197 8116
5197 8124
5198 5761
5198 6651
5198 7164
5198 7592
5201 7553
5202 5233
5202 6802
5203 5458
5203 7483
5204 5221
5204 5674
5204 5726
5204 5880
5204 6111
5204 6162
5204 6218
5204 6506
5204 6723
5204 7332
5204 7801
5206 5914
5207 5291
5207 8013
5208 7429
5209 5729
5209 7576
5210 5589
5210 7323
5211 5216
5211 5802
5211 6110
5211 6316
5211 6344
5211 7005
5211 7281
5211 8089
5212 5253
5212 5329
5212 5427
5212 5571
5212 5594
5212 5697
5212 5764
5212 5785
5212 6315
5212 6386
5212 6709
5212 6710
5212 6791
5212 6990
5212 7071
5212 7276
5212 7385
5212 7463
5212 7580
5212 7661
5212 7686
5212 7848
5212 8004
5212 8144
5212 8207
5214 5291
5214 5342
5214 5624
5214 6791
5215 5773
5215 5800
5215 6053
5215 6299
5215 8029
5216 5225
5216 5269
5216 5291
5216 5332
5216 5348
5216 5369
5216 5408
5216 5515
5216 5526
5216 5586
5216 5642
5216 5661
5216 5709
5216 5869
5216 5874
5216 5919
5216 5953
5216 6025
5216 6267
5216 6272
5216 6477
5216 6614
5216 6748
5216 6791
5216 6836
5216 6925
5216 7083
5216 7281
5216 7326
5216 7366
5216 7413
5216 7438
5216 7473
5216 7758
5216 7788
5216 7871
5216 7938
5216 7960
5216 8036
5216 8130
5216 8152
5216 8174
5216 8220
5217 6418
5218 7117
5218 7197
5218 7385
5218 8123
5219 5291
5220 7726
5220 8142
5221 6496
5221 6563
5221 7608
5222 5295
5222 7771
5224 7473
5224 7521
5225 5745
5225 5802
5225 5854
5225 6651
5225 7141
5225 7149
5225 7223
5225 7400
5226 6068
5227 7335
5228 5762
5229 7246
5230 5237
5230 5291
5230 5761
5230 5762
5231 5726
5231 6224
5231 6866
5232 5869
5232 5935
5232 6184
5232 6244
5232 6550
5232 6906
5232 6995
5232 7011
5232 7029
5232 7182
5232 7632
5232 8170
5233 5507
5233 5610
5233 5716
5233 7408
5233 7455
5233 7456
5233 7646
5233 7736
5234 5266
5234 5321
5234 5456
5234 5498
5234 5549
5234 5646
5234 5771
5234 5800
5234 5824
5234 6155
5234 6259
5234 6336
5234 6468
5234 6496
5234 6568
5234 6724
5234 6843
5234 6867
5234 6949
5234 7003
5234 7090
5234 7097
5234 7122
5234 7376
5234 7408
5234 7412
5234 7492
5234 7608
5234 7621
5234 7705
5234 7722
5234 7937
5234 8073
5234 8119
5234 8216
5235 6022
5237 5237
5237 5612
5237 6022
5237 6469
5237 6602
5237 7036
5237 7164
5237 7212
5237 7587
5237 7841
5237 8048
5239 7346
5240 5740
5240 6381
5240 6563
5240 6857
5240 7276
5240 7705
5240 8113
5241 6915
5241 7694
5242 5738
5242 5766
5243 5243
5243 5445
5243 5697
5243 5780
5243 5953
5243 5997
5243 6915
5243 7561
5244 5273
5244 5370
5244 5449
5244 6270
5244 6898
5244 7305
5244 7562
5244 7590
5244 7788
5245 5610
5245 7097
5245 7290
5245 8081
5246 6628
5246 8137
5248 7184
5248 7190
5248 7217
5249 5820
5249 6110
5249 6267
5249 6280
5249 6451
5249 6464
5249 7010
5249 7960
5250 5921
5250 6895
5250 7034
5250 7346
5250 7886
5251 5545
5251 5956
5251 6523
5251 6696
5251 6848
5251 7500
5251 7646
5251 7974
5253 5253
5253 5391
5253 5564
5253 5835
5253 5987
5253 6160
5253 6165
5253 6372
5253 6383
5253 6573
5253 6654
5253 6713
5253 6735
5253 6938
5253 6939
5253 6946
5253 6988
5253 6991
5253 7072
5253 7188
5253 7235
5253 7596
5253 7597
5253 7839
5253 7857
5253 7870
5253 7897
5253 7998
5253 8064
5254 5329
5254 6779
5256 7515
5257 5854
5257 6075
5257 6208
5257 6745
5257 7082
5257 7937
5259 7886
5259 8029
5261 5468
5261 5610
5261 5641
5261 5843
5261 6414
5261 6468
5261 6580
5261 6949
5261 7041
5261 7284
5261 7376
5261 7408
5261 8015
5262 5262
5262 5329
5262 5785
5262 5830
5262 5953
5262 6110
5262 6162
5262 6197
5262 6208
5262 6621
5262 6627
5262 6685
5262 6833
5262 7012
5262 7079
5262 7360
5262 7825
5262 8031
5262 8089
5262 8139
5264 5291
5264 5342
5264 6095
5264 6634
5264 6874
5264 6939
5264 7549
5265 5383
5265 5422
5265 5427
5265 5451
5265 5594
5265 6257
5265 6621
5265 7117
5265 7794
5265 8013
5266 5454
5266 5552
5266 5726
5266 6111
5266 7045
5266 7727
5267 7034
5268 7822
5269 5764
5269 8123
5270 7456
5271 7412
5271 7733
5272 6414
5272 7181
5273 5638
5273 5868
5273 5953
5273 6014
5273 6303
5273 6339
5273 6463
5273 6469
5273 6827
5273 7156
5273 7274
5273 7295
5273 7382
5273 7405
5273 7598
5273 7852
5273 7937
5273 8080
5273 8089
5273 8129
5273 8158
5273 8233
5274 5802
5274 7191
5274 7881
5276 5276
5276 6662
5276 8158
5277 6591
5279 5279
5279 5308
5279 5661
5279 5802
5279 6836
5279 7292
5279 7587
5280 5407
5281 5953
5281 7668
5282 6227
5283 5396
5283 5546
5284 5545
5284 5549
5284 5673
5284 5674
5284 5762
5284 5814
5284 5894
5284 5948
5284 6059
5284 6151
5284 6248
5284 6259
5284 6331
5284 6562
5284 6658
5284 6696
5284 6915
5284 7095
5284 7292
5284 7347
5284 7500
5284 7627
5284 7698
5284 7724
5284 7772
5284 8107
5288 7408
5289 7276
5290 5546
5290 5678
5290 6059
5290 6111
5290 6361
5290 6696
5290 8038
5291 5308
5291 5329
5291 5366
5291 5399
5291 5422
5291 5555
5291 5571
5291 5612
5291 5638
5291 5661
5291 5747
5291 5760
5291 5785
5291 5802
5291 5854
5291 5887
5291 6000
5291 6011
5291 6048
5291 6110
5291 6194
5291 6198
5291 6208
5291 6304
5291 6337
5291 6344
5291 6367
5291 6375
5291 6378
5291 6388
5291 6393
5291 6406
5291 6412
5291 6433
5291 6483
5291 6528
5291 6557
5291 6584
5291 6614
5291 6651
5291 6770
5291 6833
5291 6870
5291 6945
5291 7012
5291 7096
5291 7119
5291 7164
5291 7180
5291 7191
5291 7223
5291 7268
5291 7281
5291 7349
5291 7520
5291 7562
5291 7761
5291 7937
5291 7952
5291 8004
5291 8031
5291 8049
5291 8083
5291 8089
5291 8158
5292 6628
5292 8137
5294 5294
5294 6145
5294 6372
5294 6382
5294 6383
5294 6654
5294 6939
5294 6943
5294 7276
5294 7321
5294 7386
5294 7453
5294 7478
5294 7591
5294 7670
5294 7687
5295 7047
5295 7906
5296 5441
5296 5749
5296 5751
5296 5856
5296 6041
5296 6716
5296 7264
5296 7305
5296 7592
5296 8090
5297 7929
5298 5874
5298 7385
5300 5489
5300 6399
5300 7290
5300 7646
5300 7868
5302 6779
5304 6111
5306 7190
5307 7346
5308 5313
5308 5433
5308 5536
5308 5555
5308 5566
5308 5701
5308 5785
5308 5802
5308 5844
5308 5854
5308 5972
5308 6101
5308 6145
5308 6168
5308 6187
5308 6325
5308 6478
5308 6483
5308 6669
5308 6685
5308 6691
5308 6793
5308 6822
5308 6833
5308 6908
5308 6939
5308 7043
5308 7079
5308 7087
5308 7092
5308 7204
5308 7264
5308 7276
5308 7381
5308 7384
5308 7451
5308 7463
5308 7473
5308 7555
5308 7812
5308 7829
5308 7970
5308 8058
5308 8139
5309 6656
5309 6776
5309 7217
5309 8151
5312 7292
5313 5313
5313 5397
5313 5413
5313 6393
5313 6587
5313 7190
5313 7217
5313 7935
5314 7533
5315 5437
5315 5816
5315 7011
5315 7012
5315 7664
5318 6791
5319 6454
5319 6571
5319 7164
5319 7286
5320 7747
5321 6111
5321 6802
5322 7900
5323 6141
5323 6658
5324 5646
5324 7605
5324 7733
5326 7190
5326 7937
5327 5709
5328 5397
5328 6116
5328 6393
5328 7217
5328 7555
5328 7947
5328 8135
5328 8151
5329 5329
5329 5336
5329 5344
5329 5370
5329 5915
5329 6339
5329 6383
5329 6464
5329 6517
5329 6695
5329 6804
5329 6940
5329 7214
5329 7235
5329 7281
5329 7292
5329 7305
5329 7360
5329 7473
5329 7562
5329 7600
5329 7648
5329 7770
5329 7773
5329 7788
5329 7871
5329 8142
5329 8262
5331 5383
5331 5757
5331 5804
5333 6067
5333 7536
5336 5697
5336 5854
5336 6276
5336 6337
5336 6791
5336 6989
5336 7032
5336 7055
5336 7268
5336 7281
5336 7386
5337 5572
5337 6420
5337 6633
5337 7840
5338 6064
5338 6496
5338 6704
5338 6739
5338 6802
5338 6949
5338 7332
5338 7408
5338 7605
5338 7747
5338 7851
5338 8255
5339 7040
5339 7127
5339 8223
5340 6162
5340 6188
5340 6906
5340 7562
5341 7011
5342 5422
5342 5427
5342 5436
5342 5515
5342 5594
5342 5661
5342 5748
5342 5830
5342 5946
5342 5989
5342 6005
5342 6311
5342 6352
5342 6375
5342 6449
5342 6530
5342 6590
5342 6656
5342 6763
5342 6793
5342 6939
5342 6990
5342 6996
5342 7032
5342 7190
5342 7217
5342 7421
5342 7523
5342 7525
5342 7555
5342 7562
5342 7588
5342 7854
5342 7919
5342 8263
5343 6739
5343 7605
5344 5697
5344 7034
5344 7704
5344 7732
5346 5420
5346 5856
5346 6372
5346 7188
5346 7190
5346 7235
5346 7276
5346 7670
5346 7782
5346 7839
5346 8145
5346 8188
5347 7034
5348 5409
5348 5638
5348 5760
5348 5785
5348 5802
5348 5854
5348 5914
5348 6028
5348 6032
5348 6082
5348 6186
5348 6247
5348 6454
5348 6548
5348 6591
5348 6651
5348 6827
5348 6918
5348 7191
5348 7197
5348 7610
5348 8080
5348 8142
5348 8226
5352 5476
5352 5610
5352 5646
5352 5726
5352 6414
5352 6496
5352 6580
5352 6739
5352 6954
5352 7391
5352 7492
5352 7509
5352 7733
5352 8062
5354 6381
5354 6414
5355 5977
5355 6267
5355 7217
5355 7252
5355 7773
5355 8151
5356 5994
5356 6443
5356 6625
5356 7377
5356 7574
5356 7781
5357 5869
5357 6550
5357 7011
5357 7360
5357 7389
5357 8170
5358 5552
5358 7042
5358 7456
5359 7080
5359 7264
5359 7276
5359 7824
5359 8109
5359 8162
5360 5360
5360 6505
5362 6299
5363 5403
5363 6320
5363 7246
5365 5386
5365 5748
5365 5749
5365 5751
5365 5758
5365 5988
5365 6512
5365 6925
5365 6929
5365 7264
5366 5386
5366 5748
5366 5749
5366 5751
5366 5754
5366 5762
5366 5988
5366 6891
5366 6925
5366 6929
5366 7237
5366 7264
5366 7346
5366 7360
5366 7593
5366 7694
5366 8213
5368 5617
5368 6543
5369 7408
5370 5370
5370 5885
5370 5953
5370 7011
5370 7034
5370 7393
5370 7406
5370 7937
5370 7999
5370 8047
5372 5462
5372 5885
5372 6101
5372 6184
5372 8049
5373 5413
5373 5428
5373 5519
5373 5631
5373 5820
5373 6050
5373 6283
5373 6522
5373 6656
5373 7015
5373 7189
5373 7191
5373 7274
5373 7360
5373 7420
5373 7596
5373 7597
5373 7857
5373 7870
5373 7897
5373 7963
5373 8105
5374 6343
5375 5869
5375 6575
5377 5933
5377 7801
5378 7991
5379 5661
5379 6110
5379 6145
5379 6511
5379 6791
5379 7562
5379 7706
5379 8168
5380 7386
5381 5507
5381 6224
5381 6299
5381 8116
5382 7034
5383 5383
5383 5422
5383 5451
5383 5610
5383 5633
5383 5660
5383 5736
5383 5757
5383 5952
5383 6079
5383 6372
5383 6383
5383 6404
5383 6587
5383 6685
5383 6690
5383 6705
5383 6735
5383 6937
5383 6938
5383 6939
5383 6941
5383 6943
5383 6966
5383 7080
5383 7276
5383 7287
5383 7321
5383 7478
5383 7491
5383 7561
5383 7687
5383 7690
5383 7691
5383 7759
5383 7766
5383 7782
5383 7839
5383 7927
5383 7935
5383 7963
5383 7998
5383 8041
5383 8071
5383 8114
5383 8139
5383 8159
5384 5572
5384 6633
5385 7850
5385 8125
5386 5658
5386 5661
5386 5662
5386 5667
5386 5671
5386 5697
5386 5758
5386 6110
5386 6188
5386 6352
5386 6791
5386 6817
5386 6864
5386 6896
5386 7363
5386 7562
5386 7607
5387 6141
5389 7362
5390 6867
5391 5420
5391 5425
5391 5427
5391 5571
5391 5594
5391 5696
5391 5762
5391 6077
5391 6147
5391 6160
5391 6270
5391 6335
5391 6625
5391 6735
5391 6874
5391 6938
5391 6939
5391 6943
5391 6946
5391 7018
5391 7167
5391 7188
5391 7248
5391 7396
5391 7451
5391 7596
5391 7597
5391 7607
5391 7857
5391 7870
5391 7897
5391 7998
5391 8017
5391 8068
5391 8197
5392 6943
5393 5495
5393 6407
5393 7276
5393 7691
5393 8109
5393 8162
5394 7605
5394 8053
5396 5456
5396 5489
5396 5835
5396 6033
5396 6248
5396 6739
5396 6866
5396 6907
5396 7276
5396 7691
5396 7733
5396 7929
5396 8062
5397 5541
5397 5693
5397 5764
5397 5896
5397 6026
5397 6069
5397 7087
5397 7092
5397 7463
5397 7525
5402 8004
5403 5546
5403 5880
5403 6752
5403 6802
5403 7332
5403 7747
5404 5404
5404 5785
5404 6025
5405 5427
5405 6096
5405 6383
5405 7732
5406 6408
5406 7386
5407 6842
5408 5638
5408 6110
5408 6150
5408 6194
5408 6557
5408 7015
5408 7281
5408 7562
5409 7012
5410 5478
5410 6390
5410 6935
5410 7281
5410 7608
5411 5697
5411 6626
5413 5515
5413 5594
5413 7190
5414 6420
5414 7976
5415 7167
5416 5784
5416 6573
5416 6930
5416 6964
5416 6965
5416 6967
5416 6970
5416 6976
5416 7011
5416 7042
5416 7080
5416 7088
5416 7265
5416 7276
5416 7321
5416 7403
5416 7570
5416 7591
5416 7632
5416 7683
5416 7684
5416 7688
5416 7689
5416 7691
5416 7720
5416 7822
5416 7824
5416 8003
5416 8109
5416 8162
5416 8170
5418 5953
5419 5754
5419 5762
5419 7467
5420 5571
5420 6372
5420 6625
5420 6710
5420 6735
5420 6946
5420 7691
5420 7998
5422 5559
5422 5661
5422 5748
5422 5754
5422 5946
5422 5958
5422 6065
5422 6160
5422 6267
5422 6372
5422 6656
5422 6748
5422 6939
5422 6946
5422 7072
5422 7252
5422 7691
5422 7773
5422 7871
5422 8149
5424 7190
5424 7235
5424 7749
5425 5764
5425 5816
5426 7672
5427 5571
5427 6160
5427 6187
5427 6257
5427 6372
5427 6705
5427 6791
5427 6874
5427 7986
5427 7998
5430 7523
5431 5728
5431 7840
5433 5433
5433 5887
5433 6208
5433 7417
5436 5762
5436 6162
5436 6632
5436 7208
5436 7360
5437 5572
5437 6633
5437 7042
5437 7632
5437 7684
5437 7720
5437 7981
5437 8047
5437 8170
5438 7481
5441 6733
5441 7386
5442 6679
5443 7800
5444 6111
5444 6382
5444 6967
5444 8001
5445 5997
5445 6050
5445 6352
5445 6791
5445 7562
5446 7334
5447 7330
5448 7276
5448 7824
5449 5802
5449 5874
5449 7281
5449 7768
5451 5505
5451 6382
5451 6573
5451 6587
5451 6943
5451 7072
5451 7190
5451 7276
5451 7687
5451 7689
5451 7691
5451 8114
5452 6077
5453 6282
5454 5478
5454 5601
5454 5680
5454 5716
5454 5740
5454 5773
5454 5788
5454 5814
5454 5832
5454 5858
5454 6001
5454 6053
5454 6180
5454 6237
5454 6551
5454 6659
5454 6696
5454 6724
5454 6751
5454 6857
5454 6867
5454 7031
5454 7090
5454 7376
5454 7408
5454 7453
5454 7455
5454 7456
5454 7637
5454 7698
5454 7705
5454 7722
5454 7727
5454 7801
5454 7902
5454 7974
5454 7991
5454 8021
5454 8119
5454 8216
5455 5874
5456 5456
5456 5880
5456 6111
5456 6330
5456 6389
5456 6520
5456 6683
5456 6689
5456 6802
5457 7690
5458 7012
5459 6116
5462 5462
5462 5480
5462 5638
5462 5905
5462 6926
5462 7162
5462 7292
5462 7416
5462 7491
5462 7656
5462 7935
5463 7818
5463 8074
5464 5507
5464 5610
5464 5680
5464 6036
5464 6414
5464 7391
5464 7481
5464 7733
5464 7801
5464 8119
5467 7930
5468 5546
5468 7105
5469 6281
5469 7180
5470 6802
5470 7448
5472 5495
5472 5638
5472 5785
5472 5953
5472 6208
5472 6406
5472 7011
5472 7012
5472 7197
5472 7387
5472 7406
5472 7821
5472 7927
5474 6224
5474 7393
5475 6550
5477 6259
5477 7090
5478 6111
5478 6361
5478 6381
5478 7727
5479 7034
5479 7346
5479 7394
5480 5480
5480 5668
5480 5781
5480 5921
5480 7286
5480 8225
5481 8110
5483 5762
5483 6209
5483 6925
5483 7276
5483 7691
5483 8109
5483 8162
5484 5593
5484 5885
5484 5951
5484 5997
5484 6634
5484 6672
5484 6815
5484 6874
5484 6930
5484 6976
5484 7011
5484 7034
5484 7080
5484 7088
5484 7276
5484 7360
5484 7491
5484 7587
5484 7591
5484 7592
5484 7632
5484 7688
5484 7689
5484 7691
5484 7817
5484 7822
5484 7824
5484 7855
5484 7927
5484 7939
5484 8047
5484 8109
5484 8162
5484 8170
5486 7088
5489 5880
5489 6330
5489 6540
5489 6840
5489 7399
5489 7727
5489 7985
5490 6482
5490 6759
5492 5517
5492 5835
5492 6943
5493 7531
5495 6753
5495 7011
5495 7281
5495 7373
5495 7592
5495 7824
5495 7958
5496 8109
5496 8162
5498 5646
5498 5726
5498 5880
5498 6109
5498 6111
5498 6330
5498 6381
5498 6414
5498 6506
5498 6540
5498 6683
5498 6689
5498 6785
5498 6802
5498 7553
5498 7727
5498 7957
5498 7985
5499 5499
5499 7472
5500 6414
5501 7276
5501 7691
5501 7824
5502 6939
5503 5927
5503 7180
5504 5874
5504 7034
5504 7040
5504 7127
5504 7346
5504 8069
5504 8223
5505 6090
5505 6404
5505 6852
5505 6854
5505 6928
5505 6936
5505 7226
5505 7292
5505 7406
5505 7491
5505 7732
5505 7934
5505 7937
5506 5800
5507 5507
5507 5552
5507 5563
5507 5570
5507 5610
5507 5646
5507 5726
5507 5771
5507 5983
5507 6033
5507 6111
5507 6336
5507 6414
5507 6468
5507 6491
5507 6720
5507 6724
5507 6739
5507 6866
5507 6935
5507 7004
5507 7041
5507 7097
5507 7122
5507 7246
5507 7332
5507 7356
5507 7376
5507 7412
5507 7621
5507 7676
5507 7727
5507 7733
5507 7902
5507 7929
5507 8119
5508 6625
5508 7691
5509 7902
5510 7379
5514 5874
5514 6141
5515 5515
5515 5571
5515 5594
5515 5764
5515 6090
5515 6165
5515 6372
5515 6587
5515 7476
5515 7555
5515 7588
5517 6097
5517 6625
5517 6939
5517 7072
5517 7188
5517 7235
5517 7596
5517 7597
5517 7769
5517 7839
5517 7857
5517 7870
5517 7897
5517 7998
5517 8197
5518 6381
5518 6414
5518 6835
5518 7383
5518 7394
5518 7830
5521 7292
5522 7034
5525 7610
5526 5785
5526 5953
5526 6833
5526 7164
5526 7406
5526 8004
5527 5824
5528 6383
5529 6616
5530 6009
5530 7932
5533 5802
5533 6101
5533 7386
5536 5536
5536 6007
5536 6184
5536 6792
5536 7682
5537 7840
5538 6634
5539 7208
5541 5874
5541 5921
5541 5972
5541 6632
5541 7112
5541 7360
5542 7097
5543 5726
5546 5549
5546 5595
5546 5601
5546 5622
5546 5641
5546 5680
5546 5702
5546 5726
5546 5771
5546 5797
5546 5800
5546 5831
5546 5843
5546 5858
5546 5878
5546 5957
5546 6163
5546 6262
5546 6268
5546 6299
5546 6414
5546 6496
5546 6568
5546 6580
5546 6739
5546 6751
5546 6767
5546 6866
5546 7125
5546 7132
5546 7181
5546 7228
5546 7307
5546 7376
5546 7408
5546 7412
5546 7481
5546 7492
5546 7676
5546 7705
5546 7755
5546 7764
5546 7811
5546 7929
5546 7946
5546 8029
5546 8205
5546 8216
5548 6158
5549 5563
5549 5674
5549 5678
5549 6014
5549 6053
5549 6218
5549 6259
5549 6414
5549 6519
5549 6658
5549 6697
5549 7095
5549 7383
5549 7500
5549 7727
5550 7394
5552 5601
5552 5610
5552 5627
5552 5646
5552 5706
5552 5800
5552 5951
5552 6053
5552 6321
5552 6414
5552 6563
5552 6866
5552 7376
5552 7605
5552 7608
5552 7646
5552 7681
5552 7767
5552 8119
5553 6015
5555 6403
5555 7281
5556 6152
5557 6739
5558 5753
5558 6024
5558 6964
5558 6967
5558 7011
5558 7171
5558 7265
5558 7276
5558 7387
5558 7403
5558 7518
5558 7570
5558 7591
5558 7632
5558 7649
5558 7650
5558 7683
5558 7694
5558 7719
5558 7794
5558 7817
5558 7824
5558 7884
5558 7927
5558 7934
5558 7943
5558 7950
5558 7999
5558 8003
5558 8047
5558 8170
5559 6000
5559 6096
5559 6977
5560 6101
5560 7429
5561 7100
5561 7461
5562 5697
5562 6069
5562 6558
5562 6996
5562 7083
5562 7473
5562 8152
5563 5601
5563 5602
5563 5627
5563 5646
5563 5824
5563 5843
5563 5858
5563 5877
5563 6432
5563 6496
5563 6704
5563 7090
5563 7408
5563 7605
5563 7621
5563 7733
5563 8124
5566 5709
5566 6267
5566 6393
5566 6424
5566 7190
5566 7305
5566 7490
5566 7782
5566 7935
5566 8176
5566 8194
5566 8247
5567 5638
5567 5929
5567 7012
5569 7850
5569 7871
5569 8125
5570 6799
5570 7456
5570 7646
5570 7736
5571 5749
5571 6372
5571 6625
5571 6654
5571 6874
5571 7190
5571 7276
5571 7381
5571 7571
5571 7824
5571 7839
5572 5709
5572 5757
5572 5775
5572 5854
5572 5946
5572 6267
5572 6748
5572 7083
5572 7191
5572 7413
5572 7839
5572 7871
5572 8152
5572 8264
5573 7541
5574 8109
5574 8162
5575 6245
5576 5761
5576 6354
5576 7010
5576 7947
5576 8135
5577 6930
5577 7042
5577 7080
5577 7650
5579 6184
5579 7080
5579 7190
5580 6468
5581 6162
5584 5584
5585 6632
5585 7190
5585 7360
5586 6315
5586 6351
5586 6407
5588 7332
5589 5785
5589 5802
5589 5953
5589 6090
5589 6793
5589 7406
5589 7491
5589 8016
5589 8123
5589 8149
5591 5591
5591 6141
5591 6245
5592 6578
5592 7518
5592 7649
5592 7794
5592 7927
5592 8047
5593 5593
5593 5987
5593 6082
5593 6315
5593 6454
5593 7571
5593 7656
5593 7855
5593 7898
5593 7966
5593 8002
5594 5606
5594 5661
5594 5757
5594 6096
5594 6545
5594 6653
5594 6810
5594 7190
5594 7244
5594 7476
5594 7491
5594 7680
5594 7839
5594 8197
5595 6111
5595 6129
5595 6802
5595 7383
5596 7998
5597 6204
5598 6228
5599 6608
5600 5957
5600 6468
5601 5674
5601 6381
5601 6802
5601 6835
5601 7376
5601 7553
5601 7727
5601 7985
5601 8255
5602 5622
5602 7025
5602 7144
5602 7159
5602 7332
5606 5753
5606 5997
5606 6082
5606 6184
5606 6632
5606 7276
5606 7360
5606 7684
5606 7720
5606 7817
5606 7822
5606 7824
5606 8170
5607 7381
5607 8111
5608 7190
5609 5885
5609 5953
5609 6184
5609 6406
5609 7164
5609 7794
5610 5674
5610 6002
5610 6096
5610 6111
5610 6519
5610 7332
5610 7383
5610 8175
5610 8255
5612 5761
5612 5816
5612 5910
5612 6209
5612 6382
5612 6915
5612 7047
5612 7360
5612 7788
5614 5632
5614 6155
5614 7393
5614 7902
5616 7515
5617 6625
5617 7396
5617 7529
5617 7574
5617 8117
5618 5785
5618 6315
5618 6374
5618 6557
5618 7012
5618 7087
5618 7291
5620 6141
5622 5726
5622 5957
5622 6111
5622 6211
5622 6218
5622 6248
5622 6414
5622 6506
5622 7065
5622 7318
5622 7332
5622 7412
5622 7886
5622 7937
5622 8053
5623 5843
5623 6422
5623 6866
5625 7455
5625 7481
5626 7042
5626 7822
5627 6129
5627 6563
5627 6843
5627 7506
5631 5764
5631 6383
5631 8013
5632 6031
5632 6381
5632 6689
5632 7346
5633 5885
5635 6141
5636 7818
5637 5802
5637 7281
5637 7602
5638 5638
5638 5761
5638 5830
5638 5869
5638 5914
5638 5997
5638 6162
5638 6209
5638 6304
5638 6454
5638 6535
5638 6596
5638 6613
5638 6621
5638 6632
5638 6716
5638 6779
5638 6842
5638 6853
5638 7011
5638 7015
5638 7047
5638 7164
5638 7167
5638 7281
5638 7360
5638 7473
5638 7587
5638 7684
5638 7720
5638 7840
5638 7900
5638 7937
5638 7999
5638 8004
5638 8047
5638 8149
5640 7248
5641 5674
5641 6031
5641 6111
5641 6330
5641 6381
5641 6414
5641 6506
5641 6683
5641 7727
5642 5691
5642 5996
5642 6344
5642 6874
5642 7281
5643 7824
5645 5816
5645 5830
5646 5726
5646 5880
5646 5933
5646 6002
5646 6111
5646 6414
5646 6498
5646 6683
5646 6799
5646 6892
5646 7045
5646 7048
5646 7751
5646 7809
5647 6428
5647 6625
5647 7034
5650 6001
5651 6815
5651 7080
5651 7276
5651 8109
5651 8162
5652 7155
5653 7034
5653 7394
5653 7554
5653 7610
5653 8124
5654 5830
5655 6162
5657 5880
5657 6381
5657 6689
5657 8062
5658 5748
5658 5749
5658 5751
5658 5762
5658 5988
5658 6925
5658 7264
5658 7592
5658 7593
5659 5748
5659 5749
5659 5762
5659 6407
5659 6925
5659 6929
5659 7237
5659 7264
5659 7593
5660 5748
5660 5749
5660 5751
5660 5762
5660 5854
5660 5988
5660 6040
5660 6110
5660 6243
5660 6383
5660 6763
5660 6791
5660 6925
5660 6929
5660 7032
5660 7237
5660 7264
5660 7276
5660 7281
5660 7292
5660 7592
5660 7593
5661 5696
5661 5748
5661 5749
5661 5751
5661 5754
5661 5758
5661 5762
5661 5764
5661 6069
5661 6125
5661 6280
5661 6315
5661 6325
5661 6352
5661 6383
5661 6477
5661 6722
5661 6763
5661 6791
5661 6870
5661 6874
5661 6891
5661 6896
5661 7015
5661 7167
5661 7190
5661 7264
5661 7281
5661 7360
5661 7555
5661 7562
5661 7587
5661 7592
5661 7593
5661 7694
5661 7706
5661 7976
5661 8123
5661 8144
5661 8168
5661 8213
5662 5748
5662 5751
5662 5762
5662 6891
5662 6925
5662 6929
5662 7264
5662 7592
5662 7593
5662 8013
5663 5885
5663 6141
5663 6316
5663 7011
5663 7276
5663 7794
5663 8109
5663 8162
5663 8170
5667 5748
5667 5749
5667 5751
5667 5754
5667 5762
5667 5988
5667 6162
5667 6407
5667 6925
5667 7264
5667 7592
5667 7593
5668 5885
5668 7011
5668 7080
5668 7276
5668 7591
5668 7592
5668 7632
5668 7683
5668 7824
5668 8109
5668 8162
5669 5748
5669 5749
5669 5751
5669 5754
5669 5762
5669 6891
5669 6925
5669 7237
5669 7264
5669 7593
5670 7190
5670 7381
5671 5748
5671 5749
5671 5751
5671 5754
5671 5758
5671 5762
5671 6925
5671 6929
5671 7264
5671 7593
5672 7034
5674 5678
5674 5726
5674 5831
5674 6240
5674 6248
5674 6259
5674 6336
5674 6381
5674 6414
5674 6563
5674 6574
5674 6580
5674 6686
5674 6714
5674 6843
5674 6866
5674 6867
5674 6907
5674 6949
5674 7003
5674 7031
5674 7099
5674 7126
5674 7132
5674 7372
5674 7376
5674 7412
5674 7448
5674 7481
5674 7553
5674 7608
5674 7676
5674 7698
5674 7727
5674 7736
5674 7801
5674 7811
5674 7902
5674 7929
5674 8021
5674 8116
5674 8119
5675 7408
5676 5748
5676 5749
5676 5751
5676 5762
5676 6573
5676 6829
5676 6925
5676 6939
5676 6990
5676 7237
5676 7264
5676 7276
5676 7592
5676 7593
5676 7687
5676 7935
5676 8109
5676 8162
5678 5678
5678 5933
5678 6111
5678 6216
5678 6240
5678 6340
5678 6563
5678 6605
5678 6686
5678 7529
5678 7622
5680 5726
5680 5788
5680 6218
5680 6381
5680 6785
5680 6835
5680 7045
5680 7646
5680 7727
5680 7809
5680 7916
5683 6779
5683 6979
5685 7456
5687 7937
5688 5785
5688 7040
5688 7127
5688 8069
5688 8223
5690 7268
5691 5762
5691 5764
5691 6209
5691 6930
5691 6939
5691 6946
5691 7011
5691 7080
5691 7167
5691 7276
5691 7360
5691 7381
5691 7587
5691 7592
5691 7684
5691 7688
5691 7689
5691 7691
5691 7720
5691 7819
5691 7822
5691 7824
5691 7999
5691 8003
5691 8036
5691 8109
5691 8162
5692 6659
5693 6388
5693 7047
5694 5697
5694 5918
5694 5995
5694 6383
5695 5724
5695 8140
5696 6110
5696 6791
5696 7349
5696 7562
5697 5762
5697 5790
5697 6022
5697 6267
5697 6280
5697 6564
5697 6596
5697 6718
5697 6791
5697 6879
5697 6929
5697 7056
5697 7160
5697 7275
5697 7527
5697 7561
5697 7610
5697 7707
5697 8012
5699 5699
5700 6141
5701 6095
5701 7190
5701 7204
5701 7549
5701 8058
5702 5774
5702 6025
5703 6832
5704 5704
5704 6095
5704 7993
5705 5785
5705 7520
5706 6031
5706 6802
5706 7727
5706 7800
5706 8175
5709 5854
5709 6022
5709 6110
5709 6124
5709 6283
5709 6621
5709 6633
5709 6908
5709 7204
5709 7386
5709 7732
5709 8058
5711 6244
5711 6343
5711 6347
5711 6779
5711 7360
5711 7694
5712 5800
5713 6319
5713 7073
5713 7078
5713 7555
5714 6362
5714 6716
5715 7472
5715 8110
5716 5726
5716 5788
5716 6111
5716 6414
5716 7376
5716 7727
5716 8175
5717 6109
5717 7122
5718 7217
5720 5968
5721 7292
5722 6218
5724 6059
5724 6259
5724 7822
5725 6673
5725 6739
5726 5771
5726 5800
5726 5807
5726 5839
5726 5880
5726 6111
5726 6163
5726 6167
5726 6180
5726 6336
5726 6489
5726 6506
5726 6785
5726 6857
5726 6867
5726 7090
5726 7099
5726 7144
5726 7181
5726 7332
5726 7399
5726 7408
5726 7456
5726 7487
5726 7676
5726 7705
5726 7736
5726 7767
5726 7800
5726 7811
5726 7902
5726 7957
5726 7985
5726 7991
5726 8066
5726 8116
5726 8119
5726 8124
5726 8216
5727 6188
5727 7243
5728 5758
5728 7434
5729 5762
5729 5845
5729 6308
5729 6477
5729 6716
5729 6979
5729 7217
5729 7593
5729 7725
5730 7042
5730 7684
5730 7720
5730 8109
5730 8162
5731 5914
5733 5733
5734 7034
5735 6090
5735 6374
5735 6428
5735 6443
5736 7034
5737 5824
5737 6866
5737 7391
5738 5869
5738 5935
5738 5938
5738 6248
5738 6259
5738 6331
5738 6550
5738 6593
5738 6696
5738 6906
5738 6923
5738 6995
5738 7029
5738 7146
5738 7182
5738 7234
5738 7255
5738 7286
5738 7360
5738 7391
5738 7399
5738 7453
5738 7592
5738 7695
5739 6118
5740 6019
5740 6163
5740 7383
5740 7529
5740 7727
5741 6141
5741 7011
5741 7080
5741 7276
5741 7591
5741 7592
5741 7632
5741 8047
5742 5753
5742 6184
5742 7011
5742 7042
5742 7080
5742 7276
5742 7591
5742 7632
5742 7684
5742 7720
5742 7817
5742 7824
5742 7941
5742 7999
5742 8047
5742 8109
5742 8162
5742 8170
5744 6053
5748 5903
5748 6188
5748 6791
5748 6800
5748 6817
5748 6864
5748 6896
5748 7137
5748 7562
5748 7630
5748 7631
5749 5887
5749 5903
5749 6069
5749 6188
5749 6319
5749 6352
5749 6791
5749 6800
5749 6817
5749 6860
5749 6864
5749 7015
5749 7137
5749 7562
5749 7630
5749 7631
5749 8089
5750 6791
5750 6896
5751 5953
5751 6145
5751 6352
5751 6763
5751 6791
5751 6800
5751 6864
5751 6896
5751 7630
5751 7631
5752 6290
5753 5838
5753 5987
5753 6032
5753 6090
5753 6424
5753 6587
5753 6852
5753 6854
5753 6883
5753 6885
5753 6928
5753 6930
5753 6964
5753 6965
5753 6966
5753 6967
5753 6972
5753 6976
5753 7011
5753 7042
5753 7226
5753 7265
5753 7276
5753 7321
5753 7387
5753 7570
5753 7591
5753 7632
5753 7684
5753 7688
5753 7691
5753 7720
5753 7794
5753 7819
5753 7821
5753 7824
5753 7927
5753 7934
5753 7937
5753 7941
5753 7992
5753 7999
5753 8003
5753 8047
5753 8109
5753 8162
5754 6069
5754 6791
5754 6800
5754 7630
5754 8123
5755 6967
5757 5762
5757 5770
5757 5802
5757 5854
5757 5874
5757 5885
5757 5952
5757 5997
5757 6141
5757 6209
5757 6287
5757 6401
5757 6454
5757 6622
5757 6633
5757 6874
5757 6915
5757 6939
5757 7011
5757 7080
5757 7186
5757 7196
5757 7276
5757 7360
5757 7478
5757 7587
5757 7592
5757 7684
5757 7720
5757 7732
5757 7822
5757 8002
5757 8078
5757 8109
5757 8162
5757 8170
5758 5762
5758 6069
5758 6477
5758 6763
5758 6896
5758 7011
5758 7080
5758 7214
5758 7276
5758 7632
5758 7691
5758 7694
5759 7276
5760 6401
5760 6694
5760 7011
5760 7080
5760 7352
5760 7360
5760 7684
5760 7720
5760 7817
5760 8170
5761 5785
5761 5914
5761 5953
5761 6032
5761 6078
5761 6208
5761 6276
5761 6294
5761 6304
5761 6406
5761 6454
5761 6548
5761 6557
5761 6614
5761 6651
5761 6711
5761 7206
5761 7208
5761 7480
5761 7589
5761 8031
5761 8059
5761 8083
5761 8089
5761 8185
5762 5783
5762 5887
5762 5903
5762 6008
5762 6145
5762 6188
5762 6283
5762 6304
5762 6351
5762 6352
5762 6375
5762 6409
5762 6626
5762 6711
5762 6763
5762 6791
5762 6800
5762 6806
5762 6817
5762 6864
5762 6896
5762 6989
5762 7032
5762 7054
5762 7137
5762 7281
5762 7297
5762 7304
5762 7349
5762 7363
5762 7562
5762 7578
5762 7607
5762 7612
5762 7630
5762 7631
5762 7692
5762 7875
5762 8083
5762 8089
5762 8243
5763 5763
5763 6082
5763 6225
5763 6374
5763 6833
5763 6868
5763 7520
5763 7539
5763 7589
5763 7726
5764 5825
5764 5834
5764 5958
5764 5997
5764 6062
5764 6383
5764 6393
5764 6458
5764 6477
5764 6490
5764 6622
5764 6640
5764 6656
5764 6662
5764 6751
5764 6763
5764 6876
5764 7147
5764 7178
5764 7190
5764 7241
5764 7292
5764 7305
5764 7360
5764 7473
5764 7582
5764 7587
5764 7636
5764 7689
5764 7775
5764 7822
5764 7871
5764 7922
5764 8149
5764 8151
5765 7360
5770 6573
5770 6587
5770 6842
5771 5880
5771 6121
5771 6211
5771 6381
5771 6506
5771 6847
5771 7144
5771 7332
5771 7500
5771 7751
5771 8066
5771 8255
5772 6325
5773 6361
5773 7151
5774 7610
5775 6420
5775 6633
5775 7840
5779 6431
5779 7011
5779 7080
5779 7632
5779 7684
5779 7687
5779 7720
5779 7927
5779 8047
5779 8109
5779 8162
5780 6022
5780 7033
5780 7330
5782 7541
5784 6090
5784 6964
5784 7649
5785 5997
5785 6069
5785 6209
5785 6259
5785 6358
5785 6409
5785 6476
5785 6658
5785 6743
5785 6779
5785 6801
5785 6836
5785 6853
5785 7011
5785 7024
5785 7276
5785 7389
5785 7467
5785 7473
5785 7487
5785 7587
5785 7632
5785 7726
5785 7772
5785 7788
5785 7822
5785 7907
5785 7976
5786 7276
5788 5800
5788 6349
5788 6489
5788 6724
5788 6867
5788 7393
5788 7408
5788 7456
5788 7481
5788 7698
5788 7727
5788 7800
5788 7902
5788 7929
5788 8216
5789 5874
5789 6573
5789 6754
5789 7360
5789 7734
5789 7788
5790 5914
5790 5997
5790 7562
5792 7055
5794 5874
5794 7011
5794 7276
5795 5795
5797 5880
5797 6111
5797 6802
5797 7727
5798 7360
5800 5880
5800 6111
5800 6330
5800 6336
5800 6381
5800 6414
5800 6498
5800 6683
5800 6728
5800 6785
5800 6802
5800 6835
5800 6840
5800 7025
5800 7332
5800 7506
5800 7727
5800 7809
5800 7957
5800 7985
5800 8001
5801 6456
5801 6627
5802 5874
5802 5885
5802 5899
5802 6162
5802 6311
5802 6352
5802 6535
5802 6613
5802 6634
5802 6740
5802 6801
5802 6816
5802 6842
5802 6898
5802 6915
5802 6940
5802 7011
5802 7015
5802 7047
5802 7080
5802 7088
5802 7244
5802 7276
5802 7281
5802 7292
5802 7473
5802 7527
5802 7587
5802 7592
5802 7788
5802 7832
5802 7871
5802 7938
5802 8004
5802 8013
5802 8109
5802 8162
5806 6141
5807 5807
5807 6634
5807 7890
5808 7736
5809 6299
5809 7246
5809 7394
5813 5830
5813 6939
5813 7276
5814 5996
5814 6218
5814 6381
5814 6496
5814 7383
5814 7727
5816 6464
5816 6477
5816 6613
5816 6748
5816 6938
5816 6939
5816 6946
5816 7088
5816 7190
5816 7275
5816 7276
5816 7292
5816 7360
5816 7691
5816 7782
5816 7998
5816 8074
5818 7034
5818 7178
5818 7381
5818 8008
5819 7164
5820 5885
5820 6456
5820 7164
5821 5830
5822 6188
5824 5880
5824 6030
5824 6109
5824 6111
5824 6300
5824 6504
5824 6506
5824 6619
5824 7380
5824 7399
5824 7470
5824 7506
5824 7530
5824 7751
5824 7763
5824 8062
5825 7463
5826 7207
5826 7514
5830 6067
5830 6358
5830 6364
5830 6631
5830 6656
5830 6836
5830 7091
5830 7395
5830 7561
5830 7587
5830 8220
5831 6111
5831 6361
5831 6519
5831 7529
5832 6111
5832 7553
5832 7727
5832 7809
5834 5834
5834 6226
5834 6372
5834 6735
5834 6938
5834 6939
5834 6951
5834 7636
5834 7998
5834 8142
5835 6449
5835 6587
5835 6625
5835 6871
5835 6874
5835 6911
5835 6939
5835 6946
5835 6947
5835 7276
5835 7321
5835 7670
5835 7689
5835 7690
5835 7822
5835 7848
5835 7998
5836 6536
5836 8142
5838 5838
5838 6090
5838 6885
5838 6965
5838 6967
5838 6970
5838 6972
5838 6976
5838 7011
5838 7171
5838 7226
5838 7265
5838 7276
5838 7387
5838 7403
5838 7518
5838 7570
5838 7591
5838 7649
5838 7650
5838 7683
5838 7684
5838 7719
5838 7720
5838 7794
5838 7817
5838 7819
5838 7824
5838 7927
5838 7934
5838 7941
5838 7950
5838 7981
5838 8003
5838 8047
5838 8109
5838 8162
5838 8170
5839 6155
5839 7097
5839 7492
5843 5843
5843 5880
5843 6163
5843 6623
5843 6683
5843 6724
5843 7621
5843 8062
5844 7034
5844 7483
5845 8221
5846 6014
5848 8119
5852 6319
5852 7248
5853 7190
5854 5885
5854 6267
5854 6269
5854 6456
5854 6633
5854 7011
5854 7080
5854 7091
5854 7191
5854 7201
5854 7244
5854 7256
5854 7276
5854 7281
5854 7286
5854 7360
5854 7483
5854 7587
5854 7625
5854 7689
5854 7788
5854 7824
5854 8149
5855 6111
5855 6141
5855 6659
5855 7346
5856 6162
5856 6535
5856 7562
5858 6381
5858 6414
5858 6563
5858 6683
5858 6785
5858 6799
5858 6802
5858 6922
5858 7727
5859 6756
5861 6383
5861 6874
5861 7768
5862 6530
5862 7206
5862 7571
5863 7394
5864 5997
5864 7264
5864 7396
5866 5866
5866 6141
5866 6184
5869 5869
5869 6267
5869 6550
5869 6906
5869 6995
5869 7029
5869 7234
5869 7268
5869 7286
5869 7334
5870 7381
5870 8111
5871 5871
5871 6654
5871 6754
5871 6823
5871 7072
5871 7080
5871 7276
5871 7592
5871 7632
5871 7689
5871 7691
5871 7766
5871 7848
5871 7927
5871 8074
5871 8109
5871 8162
5871 8245
5873 5873
5873 7161
5874 5874
5874 5917
5874 5918
5874 5928
5874 5969
5874 6000
5874 6011
5874 6174
5874 6319
5874 6539
5874 6545
5874 6651
5874 6654
5874 6675
5874 6676
5874 6740
5874 6997
5874 7086
5874 7142
5874 7149
5874 7172
5874 7223
5874 7235
5874 7360
5874 7459
5874 7554
5874 7563
5874 7564
5874 7596
5874 7597
5874 7692
5874 7706
5874 7773
5874 7831
5874 7857
5874 7865
5874 7870
5874 7897
5874 8142
5874 8158
5874 8168
5875 5939
5875 6152
5875 6579
5877 6019
5877 6111
5877 6506
5877 7332
5880 6089
5880 6224
5880 6248
5880 6259
5880 6468
5880 6486
5880 6739
5880 6899
5880 6935
5880 7125
5880 7332
5880 7412
5880 7646
5880 7736
5880 7868
5880 7890
5880 7902
5880 7937
5880 8015
5880 8062
5880 8119
5885 5976
5885 6041
5885 6096
5885 6142
5885 6539
5885 6573
5885 6578
5885 6653
5885 6711
5885 6810
5885 6852
5885 6854
5885 6885
5885 6928
5885 6946
5885 6967
5885 6998
5885 7011
5885 7162
5885 7190
5885 7191
5885 7265
5885 7276
5885 7321
5885 7346
5885 7406
5885 7558
5885 7638
5885 7688
5885 7822
5885 7935
5885 8026
5885 8103
5885 8114
5885 8233
5887 5997
5887 6482
5887 6836
5887 6853
5887 7360
5887 7788
5887 7824
5887 8109
5887 8162
5890 7775
5891 7101
5893 6682
5894 6634
5894 6686
5894 7011
5894 7276
5894 7687
5894 7691
5894 8170
5896 6067
5896 6816
5896 7527
5897 7622
5897 7784
5897 7858
5897 7963
5898 7572
5899 6194
5900 7047
5900 7524
5902 7149
5902 8142
5903 6925
5903 7264
5903 7592
5903 7593
5905 6791
5905 7158
5906 6791
5906 7091
5906 7555
5906 8123
5908 6625
5910 5910
5910 7362
5914 5953
5914 6244
5914 6401
5914 6424
5914 6435
5914 6482
5914 6632
5914 6894
5914 7096
5914 7242
5914 7283
5914 7305
5914 7413
5914 7620
5914 7976
5915 7012
5915 7268
5915 7706
5915 8168
5918 6160
5918 6335
5918 6573
5918 6634
5918 6874
5918 7034
5918 7072
5918 7321
5918 7381
5918 7596
5918 7597
5918 7689
5918 7839
5918 7857
5918 7870
5918 7897
5921 6338
5921 7049
5921 7245
5921 7609
5921 7721
5921 8108
5923 7747
5924 6627
5924 7208
5925 6457
5925 7049
5927 5997
5927 6401
5927 6631
5927 6695
5927 6836
5927 7161
5927 7190
5927 7217
5927 7235
5927 7252
5927 7491
5927 7557
5927 7726
5927 8023
5927 8141
5928 6090
5928 6267
5929 6613
5929 6801
5929 7243
5929 7286
5929 7535
5929 8141
5930 7125
5932 6301
5932 6535
5932 6971
5933 5933
5933 6111
5933 6336
5933 6381
5933 6704
5933 6739
5933 6799
5933 7122
5933 7391
5933 7676
5933 7733
5934 6372
5937 6315
5938 6550
5938 6833
5939 6889
5940 8265
5942 7034
5943 7034
5943 7346
5945 6111
5945 6381
5945 6802
5945 7727
5945 7809
5946 5953
5946 6162
5946 6312
5946 6545
5946 6633
5946 6793
5946 7015
5946 7146
5946 7281
5946 7706
5946 8123
5946 8168
5947 7850
5947 8125
5950 7190
5951 6090
5951 6095
5951 6573
5951 7034
5951 7346
5951 7500
5951 7694
5951 7974
5952 6160
5952 6735
5952 6897
5952 6937
5952 6939
5952 6941
5952 6951
5952 7276
5952 7321
5952 7670
5952 7687
5952 7688
5952 7689
5952 7691
5952 7935
5952 8197
5953 5997
5953 6343
5953 6456
5953 6632
5953 6812
5953 6836
5953 6853
5953 6915
5953 7001
5953 7011
5953 7088
5953 7089
5953 7131
5953 7191
5953 7237
5953 7264
5953 7276
5953 7286
5953 7352
5953 7360
5953 7395
5953 7401
5953 7473
5953 7485
5953 7561
5953 7587
5953 7592
5953 7615
5953 7632
5953 7683
5953 7726
5953 7788
5953 7790
5953 7824
5953 7840
5953 7900
5953 7976
5953 8047
5953 8109
5953 8162
5953 8170
5953 8213
5953 8220
5953 8245
5954 7034
5956 6211
5956 6340
5956 7324
5956 7646
5956 7733
5956 7854
5957 6111
5957 6218
5957 7569
5961 6186
5963 7254
5963 7664
5964 6141
5965 5996
5965 6101
5965 6226
5965 6779
5966 5966
5966 6158
5969 5969
5969 6212
5969 6559
5969 7242
5970 6815
5970 6939
5970 7011
5970 7080
5970 7276
5970 7824
5970 8109
5970 8162
5971 6891
5972 7217
5972 7244
5972 7245
5972 8221
5975 6930
5976 6024
5976 7011
5976 7042
5976 7276
5976 7632
5976 7684
5976 7720
5976 7794
5976 7822
5976 7927
5976 7981
5976 7999
5976 8047
5977 7987
5979 6316
5979 6621
5980 6186
5980 6406
5980 6456
5980 6462
5980 6719
5980 6791
5980 7036
5980 7197
5980 8004
5981 6672
5981 6730
5987 7276
5987 7632
5987 7822
5987 7855
5988 6477
5988 6800
5988 6817
5988 6864
5988 6896
5988 7214
5988 7630
5988 7631
5989 6110
5990 7079
5991 6407
5991 7386
5993 6315
5993 7778
5995 6542
5995 7072
5995 7865
5995 7998
5996 6174
5996 6476
5996 6651
5996 6662
5996 6694
5996 6697
5996 6719
5996 7047
5996 7258
5996 7337
5996 7373
5996 7431
5996 7615
5996 7699
5996 7773
5996 7840
5996 8036
5997 5997
5997 6022
5997 6110
5997 6162
5997 6208
5997 6238
5997 6304
5997 6352
5997 6375
5997 6456
5997 6990
5997 7012
5997 7059
5997 7154
5997 7164
5997 7274
5997 7562
5997 8016
5997 8089
5997 8144
5998 6573
5998 6939
5998 6941
5998 7167
5998 7235
5998 7839
6000 6067
6000 6160
6000 6634
6000 7167
6000 7186
6000 7592
6000 7965
6002 6299
6002 6724
6002 6866
6002 6907
6002 7003
6002 7181
6002 7391
6002 7408
6002 7481
6002 7646
6002 7705
6002 7736
6002 7902
6002 8119
6004 6141
6004 7190
6004 7217
6007 7682
6008 6997
6008 7360
6008 7632
6008 7817
6009 6131
6009 6937
6010 6735
6010 6878
6010 6946
6010 7998
6011 6162
6011 6287
6011 7276
6012 6507
6012 6710
6012 7164
6014 7496
6014 8053
6015 6702
6017 6141
6017 7732
6019 6496
6019 6704
6019 6935
6019 7391
6019 7456
6019 8053
6019 8124
6022 6975
6022 7012
6022 7083
6022 7204
6022 7214
6022 7910
6022 8058
6022 8152
6024 6341
6024 6453
6024 6573
6024 6635
6024 6852
6024 6883
6024 6928
6024 6940
6024 6941
6024 7011
6024 7265
6024 7276
6024 7654
6024 7963
6024 8159
6025 6209
6025 6745
6025 6843
6025 7012
6025 7890
6025 8220
6027 7276
6028 6209
6028 6259
6028 6482
6028 6577
6028 6650
6028 6651
6028 6915
6028 7360
6028 7373
6028 7788
6031 6111
6031 7383
6031 7456
6031 7481
6031 7487
6031 7553
6031 7635
6031 7800
6031 8116
6032 6454
6032 7011
6032 7080
6032 7088
6032 7276
6032 7352
6032 7360
6032 7591
6032 7632
6032 7691
6032 7719
6032 7817
6032 7822
6032 7824
6032 8109
6032 8162
6033 6141
6033 6336
6033 6802
6033 6840
6033 7727
6034 7011
6034 7276
6035 6739
6035 7034
6036 6111
6036 6414
6036 6982
6036 7034
6036 7727
6036 7800
6037 6071
6038 8124
6041 6096
6041 6939
6041 6976
6041 7011
6041 7080
6041 7276
6041 7406
6041 7587
6041 7591
6041 7632
6041 7649
6041 7687
6041 7688
6041 7794
6041 7822
6041 7824
6041 7927
6041 8003
6041 8109
6041 8123
6041 8162
6043 7012
6048 6103
6048 6260
6048 6760
6048 6943
6048 7167
6048 7360
6048 7587
6048 7711
6048 7775
6048 8069
6049 7034
6050 7190
6050 7268
6050 7281
6050 7292
6051 7346
6051 7491
6051 7824
6053 6093
6053 6141
6053 6223
6053 6240
6053 6330
6053 6381
6053 6933
6053 7372
6053 7383
6053 7622
6053 7727
6053 7995
6054 6683
6058 6616
6059 6258
6059 6686
6059 7850
6059 8125
6059 8140
6060 6258
6062 6062
6064 6802
6065 6408
6065 6621
6065 7034
6065 7346
6065 7394
6066 8062
6067 6067
6067 6090
6067 6292
6067 6352
6067 6384
6067 6393
6067 6435
6067 6483
6067 6553
6067 6836
6067 7096
6067 7117
6069 6069
6069 6115
6069 6158
6069 7360
6069 8234
6070 6625
6070 7475
6071 6071
6071 6158
6071 6374
6071 6428
6071 6443
6071 7840
6072 6145
6072 7394
6073 6776
6075 7034
6075 8091
6075 8199
6076 7422
6077 7335
6077 7923
6079 7732
6080 6080
6080 7160
6080 7212
6081 7034
6081 7716
6082 6082
6082 6454
6082 6462
6082 6591
6082 6915
6082 7011
6082 7080
6082 7276
6082 7589
6082 7592
6082 7632
6082 7822
6082 7855
6082 7939
6082 8002
6082 8047
6082 8109
6082 8162
6082 8170
6088 6621
6088 7788
6089 6218
6089 6231
6090 6149
6090 6393
6090 6735
6090 6753
6090 6754
6090 6885
6090 6930
6090 6938
6090 6939
6090 6946
6090 6966
6090 6967
6090 6976
6090 7011
6090 7021
6090 7080
6090 7088
6090 7171
6090 7191
6090 7235
6090 7244
6090 7276
6090 7403
6090 7491
6090 7570
6090 7587
6090 7591
6090 7632
6090 7638
6090 7649
6090 7683
6090 7684
6090 7688
6090 7719
6090 7720
6090 7759
6090 7793
6090 7794
6090 7817
6090 7819
6090 7821
6090 7822
6090 7824
6090 7871
6090 7927
6090 7934
6090 7941
6090 7950
6090 7981
6090 7998
6090 8003
6090 8047
6090 8090
6090 8109
6090 8149
6090 8162
6091 6091
6095 6718
6095 7525
6095 7549
6095 7561
6095 7709
6095 7739
6096 6160
6096 6243
6096 6372
6096 6625
6096 6654
6096 6705
6096 6938
6096 7044
6096 7072
6096 7276
6096 7398
6096 7566
6096 7691
6096 7837
6096 7998
6100 6407
6100 7386
6101 7158
6101 7449
6101 7744
6101 8035
6103 6103
6103 6266
6103 6477
6103 6616
6103 6791
6103 6824
6103 7032
6103 7214
6103 7564
6103 8267
6106 6596
6106 6779
6109 6180
6109 6486
6109 6496
6109 6567
6109 6580
6109 6843
6109 6866
6109 6949
6109 7097
6109 7126
6109 7246
6109 7332
6109 7567
6109 7759
6109 7890
6109 8015
6110 6158
6110 6162
6110 6194
6110 6244
6110 6260
6110 6280
6110 6372
6110 6383
6110 6535
6110 6596
6110 6632
6110 6634
6110 6685
6110 6716
6110 6759
6110 6853
6110 6874
6110 6915
6110 6939
6110 7015
6110 7047
6110 7244
6110 7276
6110 7281
6110 7360
6110 7473
6110 7485
6110 7648
6110 7788
6110 7822
6110 8004
6110 8139
6111 6111
6111 6155
6111 6163
6111 6199
6111 6259
6111 6336
6111 6468
6111 6486
6111 6496
6111 6563
6111 6696
6111 6699
6111 6704
6111 6715
6111 6724
6111 6755
6111 6767
6111 6843
6111 6866
6111 6935
6111 6949
6111 7025
6111 7045
6111 7090
6111 7097
6111 7332
6111 7408
6111 7412
6111 7481
6111 7517
6111 7545
6111 7553
6111 7605
6111 7608
6111 7621
6111 7637
6111 7676
6111 7698
6111 7712
6111 7733
6111 7738
6111 7860
6111 7974
6111 8053
6111 8119
6111 8175
6111 8205
6111 8216
6111 8237
6112 6791
6114 6833
6114 6978
6114 7012
6114 8184
6115 6685
6115 7276
6115 8139
6116 7223
6116 7390
6118 6388
6120 7055
6120 7406
6122 6184
6123 6226
6124 8263
6125 6896
6125 7562
6126 7235
6128 7022
6129 6468
6129 6519
6129 6843
6130 7042
6131 6620
6132 6132
6132 6632
6132 7451
6133 6621
6134 7276
6134 7625
6134 7822
6135 7034
6137 6139
6138 6759
6140 6802
6140 7704
6140 7801
6140 7809
6141 6208
6141 6248
6141 6511
6141 6535
6141 6558
6141 6625
6141 6688
6141 6695
6141 6716
6141 6765
6141 6792
6141 6868
6141 6979
6141 6996
6141 7245
6141 7286
6141 7325
6141 7357
6141 7394
6141 7483
6141 7787
6141 7821
6141 7908
6141 7950
6144 7465
6145 6383
6145 6573
6145 6587
6145 6685
6145 6690
6145 6842
6145 6874
6145 6939
6145 6976
6145 6998
6145 7011
6145 7080
6145 7161
6145 7217
6145 7237
6145 7264
6145 7275
6145 7276
6145 7398
6145 7466
6145 7473
6145 7591
6145 7683
6145 7684
6145 7687
6145 7720
6145 7824
6145 7927
6145 8047
6145 8109
6145 8139
6145 8162
6145 8170
6145 8267
6146 6158
6147 7217
6148 7999
6149 6654
6149 6735
6149 6938
6149 6941
6149 6946
6149 7276
6149 7998
6149 8197
6150 7788
6150 7840
6152 6889
6152 7739
6152 8123
6153 7346
6153 7393
6154 6939
6154 7276
6154 7596
6154 7597
6154 7857
6154 7870
6154 7897
6157 6157
6157 6208
6158 6285
6158 6311
6158 6614
6158 6651
6158 6721
6158 6853
6158 7015
6158 8188
6160 6449
6160 6874
6160 6943
6160 6977
6160 7034
6160 7190
6160 7670
6160 7680
6160 7732
6160 7839
6160 8207
6161 6526
6161 7209
6161 7447
6161 7716
6161 7840
6162 6339
6162 6406
6162 6518
6162 6530
6162 6557
6162 6587
6162 6656
6162 6666
6162 6695
6162 6713
6162 6763
6162 6898
6162 7096
6162 7154
6162 7180
6162 7190
6162 7235
6162 7268
6162 7281
6162 7292
6162 7369
6162 7491
6162 7840
6162 7900
6162 7935
6162 7960
6162 8242
6163 6163
6163 6248
6163 6299
6163 6498
6163 6683
6163 7236
6163 7267
6163 7461
6163 7506
6163 7727
6163 7751
6163 7809
6163 8053
6163 8062
6165 6634
6165 6938
6165 6946
6165 7011
6165 7276
6165 7571
6165 7592
6165 7649
6165 7689
6165 7817
6165 7822
6165 7824
6165 7898
6165 8109
6165 8162
6165 8170
6166 6240
6167 7034
6167 7393
6167 7394
6169 7184
6171 7555
6173 6874
6175 6486
6177 6177
6177 6719
6177 7112
6177 7483
6178 6621
6178 7480
6179 7605
6180 6381
6180 6414
6180 6619
6180 8038
6180 8255
6183 6843
6183 7132
6183 7332
6184 6184
6184 6254
6184 6379
6184 7219
6184 7254
6184 7656
6185 6739
6186 6930
6186 7011
6186 7276
6186 7395
6186 7591
6186 7592
6186 7651
6186 7684
6186 7691
6186 7720
6186 7927
6186 8170
6187 6383
6187 6535
6187 6634
6187 6943
6187 7072
6187 7188
6187 7276
6187 7360
6187 7632
6187 7689
6187 7691
6187 8109
6187 8162
6188 6925
6188 7217
6188 7513
6188 7797
6188 7806
6189 7034
6194 6194
6194 6314
6194 6656
6194 7587
6196 7985
6198 7687
6201 7587
6201 7592
6202 6939
6202 7276
6203 7208
6206 6206
6207 6381
6207 6663
6207 6683
6207 6728
6207 8215
6208 6209
6208 6260
6208 6280
6208 6311
6208 6358
6208 6505
6208 6517
6208 6535
6208 6685
6208 6853
6208 7011
6208 7015
6208 7080
6208 7095
6208 7172
6208 7182
6208 7231
6208 7264
6208 7276
6208 7292
6208 7299
6208 7360
6208 7373
6208 7467
6208 7483
6208 7501
6208 7587
6208 7592
6208 7632
6208 7726
6208 7788
6208 7816
6208 7840
6208 7871
6208 7899
6208 7960
6208 7976
6208 8047
6208 8139
6208 8233
6209 6266
6209 6319
6209 6328
6209 6357
6209 6375
6209 6557
6209 6621
6209 6651
6209 6713
6209 6793
6209 6988
6209 7032
6209 7235
6209 7248
6209 7350
6209 7467
6209 7520
6209 7709
6209 7906
6209 8089
6209 8123
6210 7034
6211 6211
6211 6259
6211 6349
6211 6414
6211 6496
6211 6696
6211 6866
6211 6867
6211 7041
6211 7408
6211 7705
6211 7733
6212 7024
6212 7963
6213 6213
6216 8124
6218 6248
6218 6271
6218 6326
6218 6336
6218 6349
6218 6452
6218 6460
6218 6724
6218 6739
6218 7041
6218 7090
6218 7224
6218 7246
6218 7481
6218 7733
6218 7937
6218 8029
6218 8124
6219 6779
6221 7553
6222 7390
6224 6248
6224 6414
6224 7704
6225 6524
6226 6627
6226 6940
6226 7201
6226 7564
6226 7636
6226 7773
6229 6229
6229 7292
6229 7594
6230 6381
6230 6663
6230 6683
6230 6728
6230 8215
6232 6381
6234 6452
6234 7332
6234 7380
6234 7736
6235 7246
6236 7596
6236 7597
6236 7857
6236 7870
6236 7897
6237 7276
6240 6259
6240 7034
6240 7040
6240 7127
6240 7309
6240 7391
6240 7453
6240 7500
6240 8223
6241 6900
6243 6573
6243 6735
6243 6874
6243 6939
6243 6941
6243 6946
6243 6976
6243 7011
6243 7080
6243 7235
6243 7276
6243 7687
6243 7688
6243 7691
6244 6244
6244 6719
6244 6792
6244 7141
6244 8142
6244 8259
6245 6818
6246 6352
6246 6745
6246 7082
6247 6801
6248 6414
6248 6498
6248 6506
6248 6592
6248 6689
6248 6847
6248 7025
6248 7105
6248 7144
6248 7332
6248 7503
6248 7751
6248 8062
6248 8113
6249 6523
6249 7217
6254 7011
6254 7080
6254 7632
6254 7684
6254 7720
6254 8170
6257 6685
6257 6796
6257 7034
6257 7564
6257 8068
6257 8139
6258 7487
6258 7635
6259 6259
6259 6283
6259 6330
6259 6336
6259 6381
6259 6686
6259 6756
6259 7045
6259 7642
6259 7854
6259 7957
6259 7985
6259 8140
6259 8255
6260 6557
6260 6757
6260 8089
6260 8239
6262 6284
6262 6330
6263 7172
6264 7011
6264 7080
6264 7276
6264 7403
6264 7570
6264 7591
6264 7824
6264 8047
6264 8109
6264 8162
6266 6874
6266 7167
6266 7245
6266 7822
6266 8013
6267 6270
6267 6315
6267 6406
6267 6621
6267 6633
6267 6959
6267 7015
6267 7079
6267 7091
6267 7407
6267 7463
6267 7478
6267 7562
6267 7576
6267 7900
6267 7963
6268 6802
6268 7747
6269 7555
6270 6293
6270 6311
6270 6367
6270 6656
6270 7154
6270 7235
6270 7390
6270 7539
6270 7680
6270 7686
6270 8010
6270 8091
6270 8151
6270 8188
6270 8199
6271 6414
6271 8015
6273 7956
6276 6987
6276 7292
6278 6383
6278 6634
6278 7687
6278 8013
6279 6587
6279 6654
6279 6938
6279 6939
6279 6946
6279 7275
6279 7281
6279 7691
6280 6833
6280 6900
6280 7520
6280 7562
6280 7881
6283 7190
6283 7276
6283 7360
6286 6456
6286 8264
6287 6827
6287 7146
6287 7197
6287 7406
6287 8129
6289 7276
6289 7632
6289 7691
6289 8109
6289 8162
6290 6290
6290 6875
6290 7042
6290 8123
6290 8244
6292 7275
6294 7042
6295 7346
6296 7034
6298 7011
6298 7080
6298 7632
6298 7684
6298 7720
6298 7794
6298 7817
6299 6489
6299 6496
6299 6506
6299 6683
6299 6802
6299 7159
6299 7728
6299 8255
6300 6866
6302 6625
6302 7034
6304 6382
6304 6383
6304 6628
6304 6716
6304 6836
6304 6900
6304 7264
6304 7275
6304 7360
6304 7587
6304 7592
6304 7840
6304 8099
6304 8137
6308 7012
6308 8049
6309 6381
6311 6315
6312 7034
6313 7034
6314 6372
6315 6315
6315 6749
6315 6925
6315 7373
6315 7640
6315 7840
6315 7855
6315 8111
6315 8149
6316 7824
6316 8047
6316 8109
6316 8162
6317 6632
6317 7276
6318 6454
6319 6535
6319 6651
6319 7244
6319 7508
6319 7788
6320 6939
6320 6946
6320 7800
6321 6336
6321 6414
6321 6802
6321 7727
6321 7850
6321 7985
6321 8125
6325 6456
6325 6656
6325 6748
6325 7117
6325 7191
6325 7292
6325 7587
6326 7332
6326 7346
6328 6791
6328 7235
6329 6329
6329 7211
6330 6349
6330 6843
6330 7090
6330 7372
6330 7492
6330 7553
6330 8119
6332 7217
6332 7527
6333 7245
6334 6940
6335 6896
6335 7190
6335 7555
6336 6468
6336 6506
6336 6683
6336 6724
6336 6809
6336 7307
6336 7383
6336 7444
6336 7470
6336 7727
6336 7733
6336 7985
6336 8175
6337 6383
6337 6939
6337 7111
6337 7190
6337 7360
6337 7596
6337 7597
6337 7816
6337 7857
6337 7870
6337 7897
6337 7998
6338 7549
6339 6406
6339 6454
6339 6621
6339 6632
6339 7276
6339 7292
6339 7360
6339 7387
6339 7683
6339 7976
6340 6696
6340 7394
6341 6976
6341 7011
6341 7171
6341 7387
6341 7591
6341 7683
6341 7690
6341 7719
6341 7794
6341 7927
6341 7941
6341 7981
6343 6347
6343 6791
6343 6833
6344 6393
6344 7080
6344 7276
6344 7691
6344 8036
6346 6969
6347 6477
6347 6833
6347 7292
6347 7407
6347 8048
6349 6381
6349 6414
6349 6752
6349 6835
6349 6840
6349 7332
6349 7801
6349 8113
6351 6395
6351 6791
6352 6352
6352 6530
6352 6549
6352 6791
6352 6975
6352 7160
6352 7217
6352 7562
6352 7694
6352 7775
6352 7875
6355 6390
6355 6801
6355 7894
6355 8141
6356 8119
6356 8124
6361 7890
6362 6716
6362 8055
6364 6364
6364 6656
6364 8171
6365 6759
6365 7034
6367 7276
6367 7396
6367 7580
6367 7684
6367 7720
6367 8047
6368 6368
6368 6730
6368 7797
6368 8211
6369 7794
6370 7122
6371 7346
6372 6372
6372 6383
6372 6449
6372 6471
6372 6625
6372 6735
6372 6791
6372 6911
6372 6946
6372 7034
6372 7043
6372 7180
6372 7235
6372 7467
6372 7555
6372 7596
6372 7597
6372 7636
6372 7691
6372 7706
6372 7773
6372 7857
6372 7870
6372 7897
6372 8168
6374 6505
6374 6625
6374 7034
6374 7574
6374 7822
6374 7833
6375 6383
6375 6535
6375 6716
6375 6779
6375 6784
6375 7275
6375 7281
6375 7360
6375 7381
6375 7396
6375 7508
6375 7532
6375 7587
6375 7592
6375 7672
6375 8123
6376 7423
6379 6379
6379 6695
6379 7074
6379 7131
6379 7190
6379 7201
6379 7392
6379 7656
6379 8088
6379 8106
6380 6573
6380 6654
6380 6951
6380 7276
6380 7689
6380 7691
6380 7935
6380 8197
6381 6496
6381 6574
6381 6598
6381 6659
6381 6696
6381 6714
6381 6724
6381 6739
6381 6751
6381 6839
6381 6843
6381 6866
6381 6910
6381 6914
6381 6949
6381 7003
6381 7034
6381 7122
6381 7181
6381 7192
6381 7284
6381 7332
6381 7391
6381 7408
6381 7412
6381 7455
6381 7456
6381 7487
6381 7503
6381 7553
6381 7621
6381 7658
6381 7727
6381 7772
6381 7800
6381 7811
6381 7902
6381 8062
6381 8205
6382 6587
6382 6793
6382 6943
6382 6944
6382 7281
6382 7684
6382 7720
6382 7927
6383 6383
6383 6393
6383 6654
6383 6690
6383 6791
6383 6796
6383 6810
6383 6874
6383 6938
6383 6939
6383 6941
6383 6951
6383 7032
6383 7188
6383 7235
6383 7248
6383 7276
6383 7281
6383 7287
6383 7305
6383 7381
6383 7406
6383 7425
6383 7532
6383 7561
6383 7582
6383 7680
6383 7709
6383 7759
6383 7871
6383 7937
6383 7998
6383 8068
6383 8089
6383 8149
6383 8197
6383 8220
6384 6482
6385 6496
6385 6867
6385 7090
6386 6939
6386 8197
6388 6579
6388 6748
6388 8031
6389 6460
6389 6506
6389 7181
6389 7412
6389 7621
6389 8062
6389 8066
6390 6627
6390 6694
6390 8141
6391 6662
6391 6685
6391 8139
6392 7011
6392 7782
6392 8001
6393 6709
6393 6749
6393 6793
6393 6977
6393 7079
6393 7281
6393 7478
6393 7592
6397 7217
6398 6496
6398 7020
6398 7605
6399 6802
6401 6550
6401 6621
6401 6709
6404 7011
6404 7080
6404 7190
6404 7276
6404 7632
6404 7719
6404 7824
6404 7935
6404 8109
6404 8151
6404 8162
6404 8170
6405 7281
6405 7648
6406 6454
6406 6476
6406 6535
6406 6556
6406 6613
6406 6651
6406 6853
6406 6915
6406 7011
6406 7028
6406 7080
6406 7164
6406 7167
6406 7276
6406 7281
6406 7292
6406 7352
6406 7360
6406 7632
6406 8034
6406 8109
6406 8162
6407 6477
6407 6685
6407 7178
6407 7235
6407 7613
6407 7694
6407 7928
6407 7935
6407 7968
6407 8035
6407 8110
6407 8131
6407 8139
6407 8150
6408 6408
6408 6418
6408 6644
6408 8049
6409 6558
6409 7160
6409 7694
6410 6410
6412 6412
6412 6454
6412 7191
6412 7360
6412 8002
6414 6414
6414 6574
6414 6683
6414 6752
6414 6802
6414 6840
6414 6982
6414 7003
6414 7126
6414 7192
6414 7284
6414 7408
6414 7412
6414 7453
6414 7481
6414 7500
6414 7727
6414 7736
6414 7811
6414 7902
6414 7985
6414 8116
6414 8119
6414 8124
6414 8205
6415 6415
6415 6733
6415 7005
6415 7178
6415 8103
6416 6915
6418 6418
6418 6968
6418 7200
6418 7810
6418 7898
6420 6815
6420 7011
6420 7080
6420 7244
6420 7276
6420 7688
6420 8109
6420 8162
6421 6421
6421 6893
6421 7299
6424 6630
6426 7520
6428 6505
6428 6625
6428 7263
6428 7391
6428 7574
6428 7833
6431 6949
6431 7509
6432 6506
6432 7332
6433 6853
6434 7208
6434 7473
6437 6818
6438 7621
6441 7523
6442 7276
6442 8109
6442 8162
6443 6582
6443 6625
6443 7190
6443 7582
6444 7848
6449 6939
6449 7276
6449 7527
6452 6739
6453 7794
6454 6454
6454 6632
6454 6993
6454 7011
6454 7042
6454 7164
6454 7292
6454 7352
6454 7360
6454 7684
6454 7720
6454 7817
6454 7855
6454 7937
6454 8051
6455 6543
6456 6456
6456 6613
6456 6614
6456 7011
6456 7015
6456 7052
6456 7164
6456 7191
6456 7286
6458 7881
6459 8110
6461 7749
6462 7281
6462 7788
6463 7204
6463 8058
6464 6672
6464 8123
6465 7011
6467 7902
6468 6476
6468 6498
6468 6683
6468 6799
6468 6802
6468 7100
6468 7346
6468 7361
6468 7383
6468 7751
6468 8038
6468 8255
6476 7646
6477 6763
6477 6791
6477 6842
6477 6891
6477 6896
6477 7281
6477 7374
6477 7386
6477 7878
6479 7632
6480 6739
6480 7412
6482 6482
6482 7520
6483 6483
6485 6547
6485 7235
6485 7360
6486 6498
6486 6506
6486 6683
6486 6802
6486 7957
6489 6489
6489 7011
6489 7045
6489 7632
6489 7646
6489 7672
6489 7800
6489 8109
6489 8162
6491 7034
6491 7394
6493 6918
6493 7386
6493 7388
6493 8170
6494 7947
6494 8135
6496 6563
6496 6704
6496 6728
6496 6739
6496 7100
6496 7383
6496 7503
6496 7552
6496 7727
6496 8113
6498 6623
6498 6866
6498 7646
6498 7868
6501 8049
6502 7385
6503 7736
6505 6536
6505 7840
6506 6563
6506 6739
6506 6866
6506 7041
6506 7122
6506 7125
6506 7181
6506 7408
6506 7412
6506 7605
6506 7733
6506 7860
6506 7890
6506 8119
6507 6694
6507 7047
6507 7268
6507 7360
6508 6930
6508 7011
6508 7632
6508 8170
6511 6976
6511 7080
6511 7719
6511 7794
6511 7927
6511 7941
6511 7981
6512 6621
6512 8123
6517 7015
6517 7520
6519 7408
6519 7487
6519 7492
6519 7937
6519 7946
6519 8175
6519 8216
6521 7346
6523 7124
6523 7178
6523 7394
6523 7395
6524 6748
6524 7040
6524 7127
6524 8223
6525 7034
6528 7508
6528 8047
6530 7242
6530 7360
6530 7532
6530 7734
6532 6994
6535 6711
6535 6719
6535 6791
6535 7158
6535 7164
6535 7197
6535 7349
6535 7406
6535 7555
6535 7900
6535 7937
6535 7964
6535 8049
6536 6536
6536 7131
6538 7675
6538 7698
6538 7879
6539 7824
6540 6623
6540 7003
6541 8110
6543 7396
6543 7529
6543 7574
6543 8117
6545 6625
6545 7276
6545 7596
6545 7597
6545 7688
6545 7857
6545 7870
6545 7897
6546 6791
6548 6836
6550 6923
6550 7029
6550 7182
6550 7234
6550 7255
6550 7268
6550 7423
6553 6656
6556 7036
6558 6879
6558 7562
6558 7942
6559 6833
6560 7733
6560 8119
6563 6799
6563 6802
6563 7003
6563 7332
6563 7408
6563 7412
6563 7733
6563 8113
6563 8119
6563 8216
6564 7346
6564 8255
6567 7929
6568 8038
6571 6627
6573 6587
6573 6735
6573 6794
6573 6852
6573 6874
6573 6928
6573 6939
6573 6943
6573 6965
6573 6966
6573 6976
6573 7011
6573 7021
6573 7117
6573 7171
6573 7186
6573 7226
6573 7276
6573 7321
6573 7478
6573 7570
6573 7591
6573 7632
6573 7649
6573 7670
6573 7683
6573 7690
6573 7691
6573 7732
6573 7777
6573 7848
6573 7927
6573 7934
6573 7941
6573 7950
6573 7992
6573 8003
6573 8047
6573 8067
6573 8070
6573 8153
6574 7851
6574 7985
6578 6815
6578 6932
6578 7080
6578 7088
6578 7591
6578 8103
6578 8109
6578 8162
6579 7731
6580 6683
6580 6797
6580 6802
6580 7727
6580 7985
6580 8255
6582 8165
6583 7572
6585 7993
6587 6594
6587 6632
6587 6815
6587 6896
6587 6943
6587 6959
6587 7080
6587 7088
6587 7276
6587 7321
6587 7387
6587 7390
6587 7400
6587 7491
6587 7632
6587 7670
6587 7687
6587 7689
6587 7777
6587 7822
6587 7927
6587 7941
6587 7963
6587 8071
6587 8109
6587 8144
6587 8162
6589 6779
6589 6815
6590 7485
6590 7782
6591 6667
6592 7125
6592 7181
6592 7332
6592 7621
6593 6759
6594 6938
6594 7276
6594 7591
6596 6791
6596 6870
6596 7164
6596 7191
6596 7281
6596 7520
6596 7562
6596 8089
6597 7034
6601 6894
6601 7167
6601 7276
6601 8109
6601 8162
6602 6621
6605 6605
6605 6696
6605 6843
6605 7974
6611 6654
6611 6851
6612 8151
6613 7191
6613 7406
6613 7937
6614 6614
6614 7292
6615 7012
6615 7190
6617 6728
6619 7500
6619 7610
6621 6627
6621 6917
6621 6940
6621 7160
6621 7467
6621 7564
6621 7707
6621 7788
6621 7842
6621 7913
6621 8014
6621 8028
6621 8159
6621 8264
6622 7091
6622 7555
6622 7963
6623 6683
6624 6861
6624 7131
6625 6625
6625 6654
6625 6705
6625 6735
6625 6744
6625 6791
6625 6874
6625 6939
6625 6946
6625 7034
6625 7116
6625 7124
6625 7235
6625 7321
6625 7596
6625 7597
6625 7625
6625 7686
6625 7833
6625 7857
6625 7870
6625 7897
6625 7990
6625 7998
6625 8005
6625 8111
6626 7190
6627 6801
6627 6868
6627 6885
6627 6918
6627 7012
6627 7203
6627 7208
6627 7596
6627 7597
6627 7857
6627 7870
6627 7894
6627 7897
6628 6670
6628 6733
6631 8023
6632 6632
6632 6719
6632 6967
6632 7130
6632 7164
6632 7286
6632 7349
6632 7406
6632 7864
6632 8016
6632 8083
6633 6748
6633 7083
6633 7191
6633 7413
6633 7839
6633 7871
6633 8152
6633 8264
6634 6711
6634 6966
6634 7023
6634 7223
6634 7235
6634 7276
6634 7281
6634 7385
6634 7406
6634 7634
6634 7822
6634 7838
6635 7732
6636 6768
6639 7541
6640 7268
6641 7217
6641 7276
6641 7824
6642 7047
6651 6833
6651 6887
6651 6990
6651 7204
6651 7208
6651 7276
6651 7360
6651 7592
6651 7794
6651 7976
6651 8058
6651 8123
6651 8142
6652 7822
6654 6911
6654 6946
6654 7091
6654 7188
6654 7235
6654 7276
6654 7321
6654 7478
6654 7625
6654 7634
6654 7690
6654 7848
6656 6770
6656 6791
6656 7015
6656 7208
6656 7281
6656 7562
6656 7600
6656 7976
6656 8004
6656 8213
6657 7011
6657 7650
6658 6686
6658 7854
6659 7729
6659 7882
6660 7034
6661 7217
6662 6662
6666 6666
6668 6739
6669 6669
6669 7178
6670 8137
6672 7034
6672 8089
6674 7447
6676 7385
6683 6849
6683 6866
6683 6907
6683 6935
6683 7090
6683 7246
6683 7376
6683 7412
6683 7621
6683 7890
6683 7902
6683 7937
6684 7360
6685 6685
6685 6874
6685 6915
6685 7034
6685 7346
6685 7386
6685 7558
6685 7562
6685 7732
6685 7779
6685 7912
6685 8005
6685 8013
6685 8045
6685 8072
6685 8104
6685 8139
6686 6696
6686 7453
6686 7850
6686 8125
6689 6704
6689 6907
6689 7332
6689 7481
6689 7608
6689 7733
6689 7937
6689 8015
6689 8053
6689 8062
6690 6791
6690 6874
6690 8076
6691 7840
6694 6719
6694 6918
6694 6993
6694 7012
6694 7140
6694 7203
6694 7409
6694 7542
6694 7544
6694 7589
6694 7894
6694 8051
6694 8185
6695 7881
6695 8213
6696 6714
6696 7383
6696 7529
6696 7727
6700 7011
6700 7650
6700 7824
6703 7296
6704 6845
6705 6829
6705 6943
6705 7190
6705 7276
6705 7478
6705 7491
6705 7596
6705 7597
6705 7670
6705 7857
6705 7870
6705 7897
6708 7011
6708 7080
6708 7276
6709 6709
6710 6754
6711 6711
6711 6915
6711 6930
6711 7011
6711 7276
6711 7360
6711 7672
6711 7824
6711 7939
6711 8109
6711 8162
6713 6791
6713 6874
6713 6939
6713 7015
6713 7276
6713 7691
6713 7822
6714 7453
6715 6802
6715 7394
6715 7985
6716 7281
6716 7349
6716 7421
6716 7457
6716 7555
6716 7937
6717 7562
6718 6833
6718 6988
6719 7164
6719 7360
6719 7592
6720 6973
6723 7902
6724 6802
6724 6889
6724 7048
6724 7332
6724 7399
6724 7500
6724 7731
6724 7801
6724 8175
6728 6739
6728 7372
6728 7391
6728 7605
6728 7676
6728 7776
6730 6730
6730 8211
6731 8142
6732 6799
6732 6802
6733 8137
6734 7596
6734 7597
6734 7706
6734 7857
6734 7870
6734 7897
6734 8168
6735 6813
6735 6939
6735 6966
6735 7018
6735 7021
6735 7235
6735 7276
6735 7321
6735 7387
6735 7491
6735 7625
6735 7632
6735 7636
6735 7670
6735 7689
6735 7691
6735 7773
6735 8089
6736 8123
6739 6771
6739 6772
6739 6785
6739 6799
6739 6892
6739 7045
6739 7105
6739 7187
6739 7312
6739 7332
6739 7428
6739 7462
6739 7569
6739 7911
6739 7977
6739 8047
6739 8255
6744 6836
6745 7089
6745 7788
6746 7510
6747 7042
6747 7276
6747 8170
6749 6938
6749 7034
6749 7087
6750 6994
6751 6802
6751 7727
6752 7759
6753 7321
6753 7937
6754 7117
6759 7010
6759 7653
6761 7680
6761 8023
6762 8062
6763 6791
6763 6925
6763 6989
6763 7147
6763 7237
6763 7292
6763 7587
6763 7592
6763 7593
6763 7706
6763 8168
6764 7011
6766 6826
6767 6840
6769 8236
6769 8240
6770 7047
6770 7291
6772 7929
6773 7042
6773 7360
6773 7999
6774 7080
6779 7963
6781 6791
6782 7015
6782 7562
6782 7587
6783 7292
6784 8123
6785 7509
6785 7705
6786 7276
6786 8109
6786 8162
6787 7034
6791 6842
6791 6891
6791 6896
6791 6897
6791 6915
6791 6917
6791 6925
6791 6929
6791 6946
6791 6956
6791 7034
6791 7044
6791 7161
6791 7188
6791 7209
6791 7212
6791 7214
6791 7237
6791 7264
6791 7305
6791 7345
6791 7360
6791 7466
6791 7477
6791 7564
6791 7576
6791 7587
6791 7593
6791 7606
6791 7670
6791 7680
6791 7694
6791 7831
6791 7836
6791 7837
6791 7865
6791 7986
6791 8013
6791 8072
6791 8197
6791 8220
6791 8267
6792 6792
6792 6801
6792 7243
6793 7191
6793 7216
6793 7217
6794 7276
6797 6866
6797 7621
6799 6935
6799 7284
6799 7290
6799 7412
6799 7481
6799 7621
6799 7800
6799 7822
6799 8175
6799 8205
6799 8216
6799 8218
6800 7237
6800 7264
6800 7592
6800 7593
6800 7694
6801 6801
6801 6940
6801 7141
6801 8142
6802 6866
6802 6867
6802 6948
6802 6949
6802 7090
6802 7229
6802 7376
6802 7412
6802 7448
6802 7481
6802 7545
6802 7608
6802 7646
6802 7755
6802 7902
6802 7937
6806 7056
6806 7190
6806 7276
6806 7591
6806 7632
6806 7650
6806 7898
6806 7927
6806 8109
6806 8162
6808 7458
6809 7246
6810 6939
6810 7276
6810 7794
6810 8109
6810 8162
6811 7276
6811 7689
6811 8109
6811 8162
6812 7555
6813 6966
6814 7523
6815 6964
6815 6970
6815 6976
6815 7226
6815 7401
6815 7632
6815 7683
6815 7691
6815 8047
6817 6925
6817 6929
6817 7264
6817 7593
6817 7806
6820 6833
6821 8123
6823 7180
6823 8158
6827 6930
6827 7011
6827 7042
6827 7080
6827 7088
6827 7276
6827 7360
6827 7632
6827 7719
6827 7817
6827 7822
6827 7824
6827 7927
6827 7941
6827 8047
6827 8170
6829 6874
6829 7011
6829 7080
6829 7276
6829 7632
6829 7684
6829 7691
6829 7720
6830 7161
6831 7276
6831 8047
6832 7124
6832 7394
6833 7483
6833 7726
6833 7758
6833 8103
6833 8174
6835 6980
6835 7192
6835 7376
6835 7448
6835 7767
6835 8124
6836 6836
6836 7012
6836 7406
6836 7475
6836 7692
6837 7190
6840 6907
6840 7122
6840 7181
6840 7246
6840 7408
6840 7860
6840 7937
6841 7015
6841 7406
6841 7423
6841 8144
6842 6842
6842 6874
6842 7305
6842 7564
6843 7025
6843 7318
6843 8062
6844 7125
6844 7678
6845 7621
6845 7712
6845 7733
6845 7736
6845 7776
6846 7605
6846 8124
6847 6866
6849 8038
6850 7080
6850 8109
6850 8162
6852 6930
6852 6965
6852 6967
6852 6972
6852 6976
6852 7011
6852 7088
6852 7171
6852 7265
6852 7276
6852 7387
6852 7403
6852 7518
6852 7570
6852 7591
6852 7632
6852 7649
6852 7650
6852 7683
6852 7684
6852 7687
6852 7688
6852 7689
6852 7690
6852 7691
6852 7719
6852 7720
6852 7759
6852 7794
6852 7817
6852 7819
6852 7824
6852 7927
6852 7950
6852 7999
6852 8003
6852 8047
6852 8109
6852 8162
6852 8170
6853 7029
6853 7054
6853 7315
6853 7562
6853 8031
6853 8089
6853 8233
6854 6976
6854 7011
6854 7042
6854 7080
6854 7088
6854 7171
6854 7276
6854 7387
6854 7403
6854 7491
6854 7518
6854 7570
6854 7591
6854 7632
6854 7649
6854 7650
6854 7683
6854 7687
6854 7691
6854 7719
6854 7794
6854 7817
6854 7824
6854 7927
6854 7941
6854 7999
6854 8003
6854 8047
6854 8109
6854 8162
6854 8170
6857 7045
6860 6925
6861 7945
6861 8035
6864 6925
6864 7190
6864 7264
6864 7592
6864 7593
6865 7937
6866 7383
6866 7492
6866 7506
6866 7985
6867 7727
6867 8175
6868 7164
6868 7589
6870 7154
6870 7190
6870 7242
6870 7587
6870 7734
6871 6939
6871 7276
6873 7360
6873 7558
6874 6874
6874 6896
6874 6990
6874 7021
6874 7072
6874 7124
6874 7190
6874 7451
6874 7525
6874 7554
6874 7839
6874 7989
6874 8036
6874 8139
6875 7079
6875 7532
6875 7933
6879 6896
6879 7276
6879 7824
6880 7394
6880 7733
6883 6883
6883 6885
6883 6928
6883 6939
6883 6951
6883 6964
6883 6967
6883 7011
6883 7021
6883 7080
6883 7171
6883 7226
6883 7265
6883 7276
6883 7292
6883 7387
6883 7395
6883 7403
6883 7570
6883 7591
6883 7632
6883 7649
6883 7650
6883 7683
6883 7689
6883 7690
6883 7691
6883 7719
6883 7794
6883 7817
6883 7819
6883 7824
6883 7884
6883 7927
6883 7934
6883 7941
6883 7950
6883 8003
6883 8047
6883 8109
6883 8162
6883 8170
6885 6885
6885 6928
6885 6930
6885 6964
6885 6966
6885 6967
6885 6972
6885 6976
6885 7011
6885 7042
6885 7080
6885 7226
6885 7276
6885 7387
6885 7518
6885 7570
6885 7591
6885 7632
6885 7649
6885 7650
6885 7683
6885 7684
6885 7690
6885 7691
6885 7719
6885 7720
6885 7794
6885 7817
6885 7819
6885 7821
6885 7824
6885 7927
6885 7934
6885 7941
6885 7950
6885 7981
6885 7999
6885 8003
6885 8047
6885 8109
6885 8162
6887 7360
6887 7592
6889 7579
6889 7887
6891 6896
6891 7160
6891 7561
6891 7630
6891 7631
6892 7621
6893 7299
6896 6925
6896 6929
6896 7056
6896 7167
6896 7237
6896 7264
6896 7381
6896 7587
6896 7593
6896 7694
6897 6977
6897 7321
6898 7141
6900 6958
6903 7047
6907 7048
6907 7727
6907 7809
6907 7985
6908 6951
6908 7217
6908 7237
6908 7276
6908 7413
6908 7491
6908 7691
6908 7719
6909 6984
6911 6937
6911 6939
6911 6941
6911 6943
6911 6951
6911 7235
6911 7276
6911 7688
6911 7691
6911 7773
6911 7998
6915 7012
6915 7036
6915 7191
6915 7201
6915 7406
6915 7467
6915 7562
6915 7692
6915 8049
6915 8089
6915 8139
6916 8123
6917 7732
6918 8112
6924 6995
6924 7656
6925 7015
6925 7562
6925 7630
6925 7631
6925 7969
6927 7385
6928 6951
6928 6964
6928 6965
6928 6966
6928 6967
6928 6970
6928 6976
6928 7011
6928 7080
6928 7088
6928 7171
6928 7226
6928 7265
6928 7276
6928 7387
6928 7570
6928 7591
6928 7632
6928 7649
6928 7650
6928 7683
6928 7688
6928 7690
6928 7719
6928 7759
6928 7794
6928 7817
6928 7822
6928 7824
6928 7927
6928 7934
6928 7937
6928 7999
6928 8003
6928 8047
6928 8109
6928 8162
6928 8170
6929 7631
6930 6964
6930 6967
6930 6970
6930 6976
6930 7011
6930 7226
6930 7570
6930 7619
6930 7628
6930 7649
6930 7683
6930 7927
6930 7992
6930 8080
6934 7034
6935 7034
6935 7346
6935 7747
6937 7235
6938 6990
6938 7021
6938 7190
6938 7276
6938 7321
6938 7491
6938 7555
6938 7591
6938 7636
6938 7670
6938 7690
6938 7691
6938 7777
6939 6939
6939 6943
6939 6946
6939 6952
6939 6966
6939 6970
6939 6988
6939 6990
6939 7018
6939 7032
6939 7190
6939 7235
6939 7276
6939 7320
6939 7321
6939 7478
6939 7491
6939 7511
6939 7566
6939 7571
6939 7625
6939 7632
6939 7636
6939 7670
6939 7683
6939 7687
6939 7690
6939 7691
6939 7719
6939 7749
6939 7759
6939 7782
6939 7795
6939 7822
6939 7839
6939 7937
6939 8011
6939 8260
6940 7029
6940 7406
6940 7555
6940 7794
6940 7937
6940 7976
6940 8055
6941 6970
6941 7276
6941 7491
6941 7591
6941 7670
6941 7687
6941 7690
6941 7691
6941 7719
6941 7822
6942 7091
6942 7732
6943 6946
6943 6966
6943 7011
6943 7021
6943 7091
6943 7171
6943 7186
6943 7190
6943 7235
6943 7276
6943 7491
6943 7511
6943 7570
6943 7625
6943 7670
6943 7683
6943 7686
6943 7687
6943 7688
6943 7689
6943 7822
6943 7839
6943 7927
6943 8071
6944 7276
6944 8109
6944 8162
6946 7032
6946 7034
6946 7190
6946 7235
6946 7276
6946 7491
6946 7555
6946 7596
6946 7597
6946 7625
6946 7690
6946 7691
6946 7857
6946 7870
6946 7897
6947 7072
6949 7045
6949 7144
6949 7727
6949 7747
6950 7672
6951 6965
6951 7089
6951 7321
6951 7625
6951 7636
6951 7794
6951 7822
6951 7848
6952 7689
6952 7691
6953 7011
6953 7080
6953 7276
6953 7824
6953 8109
6953 8162
6955 7670
6957 7034
6958 8158
6959 7011
6959 7080
6959 7276
6959 7935
6962 6962
6962 7208
6963 7894
6964 6964
6964 6967
6964 6976
6964 7011
6964 7021
6964 7042
6964 7080
6964 7088
6964 7171
6964 7226
6964 7265
6964 7276
6964 7292
6964 7387
6964 7570
6964 7591
6964 7632
6964 7649
6964 7683
6964 7687
6964 7688
6964 7689
6964 7690
6964 7719
6964 7759
6964 7794
6964 7817
6964 7819
6964 7824
6964 7927
6964 7950
6964 7999
6964 8003
6964 8047
6964 8109
6964 8162
6964 8170
6965 6966
6965 6967
6965 6976
6965 7011
6965 7226
6965 7265
6965 7276
6965 7387
6965 7591
6965 7632
6965 7649
6965 7684
6965 7690
6965 7691
6965 7719
6965 7720
6965 7794
6965 7817
6965 7822
6965 7824
6965 7927
6965 7941
6965 8003
6965 8047
6966 6967
6966 7011
6966 7034
6966 7080
6966 7226
6966 7265
6966 7276
6966 7321
6966 7387
6966 7459
6966 7511
6966 7516
6966 7591
6966 7632
6966 7649
6966 7670
6966 7688
6966 7817
6966 7822
6966 7824
6966 7927
6966 7934
6966 8047
6966 8109
6966 8162
6966 8170
6967 6967
6967 6970
6967 6972
6967 6976
6967 7011
6967 7042
6967 7080
6967 7088
6967 7171
6967 7226
6967 7265
6967 7276
6967 7387
6967 7518
6967 7570
6967 7591
6967 7600
6967 7632
6967 7649
6967 7650
6967 7683
6967 7684
6967 7690
6967 7691
6967 7719
6967 7720
6967 7794
6967 7817
6967 7821
6967 7824
6967 7884
6967 7927
6967 7934
6967 7941
6967 7950
6967 7999
6967 8003
6967 8047
6967 8109
6967 8162
6967 8170
6968 7292
6968 7360
6970 6976
6970 7011
6970 7042
6970 7080
6970 7088
6970 7226
6970 7265
6970 7276
6970 7403
6970 7591
6970 7632
6970 7650
6970 7684
6970 7719
6970 7720
6970 7759
6970 7817
6970 7819
6970 7824
6970 7934
6970 7999
6970 8003
6970 8047
6970 8109
6970 8162
6971 7298
6971 7349
6971 7446
6972 6976
6972 7011
6972 7042
6972 7080
6972 7226
6972 7265
6972 7276
6972 7387
6972 7570
6972 7591
6972 7649
6972 7650
6972 7683
6972 7719
6972 7794
6972 7817
6972 7821
6972 7824
6972 7884
6972 7927
6972 7934
6972 7941
6972 7950
6972 7981
6972 7999
6972 8003
6972 8047
6972 8170
6973 7190
6974 7080
6974 7824
6974 8109
6974 8162
6975 7212
6976 7011
6976 7080
6976 7226
6976 7265
6976 7276
6976 7292
6976 7321
6976 7398
6976 7403
6976 7570
6976 7591
6976 7649
6976 7670
6976 7683
6976 7684
6976 7687
6976 7689
6976 7720
6976 7822
6976 7824
6976 7927
6976 7934
6976 7937
6976 7941
6976 8003
6976 8047
6976 8109
6976 8162
6976 8170
6979 7364
6982 7605
6988 7080
6988 7276
6988 7822
6989 7167
6989 7610
6989 7694
6989 7715
6989 8110
6990 7235
6990 7244
6990 7276
6990 7824
6990 8109
6990 8162
6990 8245
6991 7596
6991 7597
6991 7857
6991 7870
6991 7897
6993 7406
6993 7656
6993 7817
6995 7182
6996 7381
6996 7562
6996 7596
6996 7597
6996 7857
6996 7870
6996 7897
6996 7986
6996 7999
6997 7281
6998 7570
6999 8123
7000 7558
7002 7055
7003 7100
7003 7383
7003 7552
7003 7727
7003 7809
7004 7481
7009 7706
7009 8168
7010 7252
7011 7011
7011 7036
7011 7054
7011 7057
7011 7060
7011 7080
7011 7088
7011 7161
7011 7164
7011 7165
7011 7171
7011 7176
7011 7197
7011 7203
7011 7226
7011 7233
7011 7235
7011 7248
7011 7251
7011 7265
7011 7276
7011 7286
7011 7295
7011 7355
7011 7386
7011 7387
7011 7400
7011 7406
7011 7478
7011 7490
7011 7491
7011 7504
7011 7516
7011 7555
7011 7570
7011 7591
7011 7600
7011 7625
7011 7632
7011 7649
7011 7650
7011 7670
7011 7683
7011 7688
7011 7689
7011 7692
7011 7719
7011 7754
7011 7759
7011 7794
7011 7817
7011 7821
7011 7824
7011 7829
7011 7914
7011 7927
7011 7934
7011 7937
7011 7941
7011 7950
7011 7963
7011 7981
7011 7992
7011 7998
7011 8003
7011 8047
7011 8075
7011 8080
7011 8109
7011 8159
7011 8162
7011 8170
7012 7015
7012 7264
7012 7275
7012 7276
7012 7281
7012 7520
7012 7562
7012 7627
7012 7652
7012 7684
7012 7720
7012 7907
7012 8004
7012 8170
7012 8244
7013 8050
7015 7015
7015 7096
7015 7164
7015 7191
7015 7268
7015 7281
7015 7292
7015 7305
7015 7355
7015 7406
7015 7871
7015 7999
7015 8004
7015 8123
7016 7387
7018 7716
7018 7732
7021 7072
7021 7190
7021 7265
7021 7296
7021 7538
7021 7687
7021 7688
7021 7839
7021 7963
7021 7998
7022 7292
7023 7217
7025 7025
7025 7097
7025 7246
7025 7291
7025 7621
7025 8062
7026 7080
7026 7824
7026 8109
7026 8162
7027 7244
7028 7164
7029 7182
7029 7360
7031 7126
7031 7383
7031 7727
7031 7850
7031 8125
7032 7360
7032 7381
7032 8013
7033 7228
7033 7330
7034 7034
7034 7038
7034 7079
7034 7088
7034 7117
7034 7124
7034 7180
7034 7227
7034 7238
7034 7284
7034 7307
7034 7310
7034 7381
7034 7398
7034 7442
7034 7443
7034 7468
7034 7505
7034 7558
7034 7563
7034 7564
7034 7566
7034 7573
7034 7617
7034 7630
7034 7641
7034 7660
7034 7685
7034 7686
7034 7754
7034 7796
7034 7833
7034 7850
7034 7872
7034 7893
7034 7917
7034 7931
7034 7990
7034 7997
7034 8005
7034 8024
7034 8100
7034 8121
7034 8123
7034 8125
7034 8139
7034 8153
7034 8180
7034 8204
7034 8235
7034 8269
7036 7042
7036 7088
7036 7360
7036 7632
7036 8170
7040 7238
7040 7353
7041 7048
7042 7054
7042 7103
7042 7139
7042 7191
7042 7225
7042 7232
7042 7251
7042 7269
7042 7387
7042 7570
7042 7598
7042 7650
7042 7754
7042 7905
7042 7934
7042 7941
7042 8003
7042 8047
7042 8149
7042 8169
7042 8185
7045 7100
7045 7408
7045 7767
7045 8053
7045 8124
7047 7083
7047 7281
7047 7349
7047 7385
7047 7558
7047 7771
7047 7861
7047 8089
7047 8123
7047 8152
7047 8158
7047 8225
7048 7646
7050 7248
7051 7334
7052 8149
7054 7080
7054 7276
7054 7360
7054 7939
7055 7196
7055 7610
7060 7276
7060 8017
7062 7520
7062 7725
7068 7330
7068 7716
7069 7527
7069 7878
7071 7406
7071 7555
7071 8089
7072 7091
7072 7190
7072 7235
7072 7276
7072 7321
7072 7385
7072 7491
7074 7610
7074 7656
7075 7215
7075 7750
7075 7843
7075 8006
7075 8109
7075 8162
7077 8023
7079 7154
7079 7191
7079 7217
7080 7089
7080 7136
7080 7197
7080 7233
7080 7276
7080 7295
7080 7321
7080 7387
7080 7406
7080 7439
7080 7478
7080 7504
7080 7570
7080 7589
7080 7591
7080 7632
7080 7649
7080 7670
7080 7684
7080 7713
7080 7719
7080 7720
7080 7726
7080 7757
7080 7765
7080 7794
7080 7817
7080 7878
7080 7895
7080 7927
7080 7934
7080 7937
7080 7950
7080 7981
7080 7992
7080 8040
7081 7491
7082 7788
7083 7268
7084 7152
7085 8144
7087 7178
7087 7217
7088 7191
7088 7265
7088 7276
7088 7281
7088 7346
7088 7393
7088 7406
7088 7491
7088 7684
7088 7720
7088 7934
7088 7935
7088 8047
7089 7276
7089 7638
7089 7683
7089 8109
7089 8162
7090 7383
7090 7529
7090 7569
7090 7727
7091 7091
7091 7217
7091 7276
7091 7398
7091 7740
7091 7998
7092 7217
7093 8216
7096 7167
7096 7276
7096 7687
7097 7332
7097 7727
7097 7851
7100 7800
7100 8205
7104 7276
7105 7181
7105 7332
7105 7733
7111 7537
7112 7112
7114 7346
7115 7190
7115 7381
7117 7381
7117 7926
7117 8123
7122 7985
7124 7235
7124 7686
7124 7833
7125 7144
7125 7751
7125 8255
7126 7727
7126 7729
7127 7238
7127 7353
7131 7406
7132 7704
7135 7152
7137 7264
7140 7140
7140 7726
7141 7172
7142 7208
7142 8171
7144 7246
7144 7290
7144 7408
7144 7492
7144 7605
7144 7621
7144 7646
7144 7902
7144 7937
7144 8119
7145 7145
7146 7360
7146 7425
7153 7235
7154 8123
7155 7180
7155 7244
7155 7694
7155 7840
7155 8110
7157 7376
7158 7275
7158 7349
7158 7360
7158 7707
7158 8025
7159 7332
7160 7562
7161 7467
7161 7591
7161 7781
7161 8023
7163 8174
7164 7164
7164 7286
7164 7360
7164 7395
7164 7592
7164 7788
7164 8002
7164 8026
7164 8057
7165 7691
7167 8089
7167 8187
7171 7226
7171 7265
7171 7276
7171 7490
7171 7491
7171 7591
7171 7651
7171 7819
7171 7824
7171 7927
7171 7934
7171 7992
7171 8003
7171 8047
7171 8109
7171 8162
7174 7485
7178 7587
7178 7976
7178 8187
7180 7587
7180 7986
7181 7506
7181 7543
7181 7727
7181 7809
7181 7957
7181 8062
7181 8164
7181 8175
7184 7396
7184 7425
7184 7589
7184 8253
7185 7292
7187 8113
7188 7276
7188 7321
7188 7670
7190 7190
7190 7196
7190 7204
7190 7206
7190 7276
7190 7349
7190 7381
7190 7440
7190 7463
7190 7515
7190 7525
7190 7591
7190 7649
7190 7670
7190 7672
7190 7691
7190 7768
7190 7781
7190 7784
7190 7812
7190 7839
7190 7963
7190 7976
7190 8044
7190 8058
7190 8165
7190 8187
7191 7281
7191 7286
7191 7313
7191 7387
7191 7406
7191 7562
7191 7817
7191 8123
7191 8170
7193 7292
7194 7245
7195 7722
7196 7235
7196 7381
7196 7561
7197 7217
7197 7276
7197 7360
7197 7386
7197 7632
7197 7817
7197 7941
7197 8047
7197 8109
7197 8162
7201 7477
7201 7817
7203 7276
7203 7541
7204 7292
7204 7775
7204 8263
7207 7465
7207 7596
7207 7597
7207 7857
7207 7870
7207 7897
7208 7208
7208 8255
7210 8141
7211 7211
7212 7212
7212 7281
7212 7292
7212 7562
7212 7627
7212 7840
7214 7237
7214 7264
7214 7268
7214 7386
7214 7610
7215 7662
7215 7663
7217 7406
7217 7478
7217 7538
7217 7761
7217 7903
7217 8092
7217 8098
7217 8123
7224 8255
7226 7226
7226 7265
7226 7276
7226 7387
7226 7403
7226 7570
7226 7591
7226 7632
7226 7649
7226 7650
7226 7683
7226 7684
7226 7688
7226 7689
7226 7691
7226 7719
7226 7720
7226 7794
7226 7817
7226 7819
7226 7824
7226 7927
7226 7934
7226 7941
7226 7950
7226 7981
7226 7992
7226 7999
7226 8003
7226 8047
7226 8109
7226 8162
7226 8170
7228 7228
7229 7801
7233 7276
7233 7591
7233 7632
7233 7817
7233 7824
7233 8047
7233 8109
7233 8162
7235 7235
7235 7276
7235 7321
7235 7385
7235 7463
7235 7587
7235 7596
7235 7597
7235 7661
7235 7687
7235 7691
7235 7822
7235 7848
7235 7857
7235 7870
7235 7897
7235 7990
7235 7998
7235 8067
7235 8070
7235 8197
7237 7631
7238 8072
7238 8223
7243 7243
7243 7358
7243 8264
7244 7281
7245 7316
7246 7727
7246 7985
7248 7276
7248 7360
7248 7587
7248 7592
7248 7691
7248 7930
7251 7632
7251 7664
7251 7794
7251 8170
7252 7563
7253 7822
7254 7602
7254 7937
7257 7276
7257 7876
7258 8170
7261 7360
7261 8170
7262 7788
7263 7396
7264 7478
7264 7562
7264 7600
7264 7630
7264 7631
7264 8123
7265 7276
7265 7387
7265 7395
7265 7518
7265 7570
7265 7591
7265 7632
7265 7649
7265 7650
7265 7683
7265 7690
7265 7691
7265 7719
7265 7794
7265 7822
7265 7934
7265 7941
7265 7950
7265 8003
7265 8047
7266 7487
7268 7278
7268 7330
7268 7352
7268 7360
7268 7404
7268 7406
7268 7562
7268 7587
7268 7871
7268 8004
7268 8152
7273 7725
7274 7360
7274 7407
7274 7822
7274 7939
7275 7314
7275 7333
7275 7549
7275 7640
7275 7896
7275 8013
7275 8089
7275 8129
7276 7276
7276 7295
7276 7320
7276 7321
7276 7350
7276 7364
7276 7385
7276 7387
7276 7390
7276 7400
7276 7406
7276 7437
7276 7439
7276 7440
7276 7460
7276 7478
7276 7491
7276 7511
7276 7516
7276 7555
7276 7558
7276 7570
7276 7591
7276 7600
7276 7628
7276 7631
7276 7632
7276 7649
7276 7670
7276 7680
7276 7683
7276 7684
7276 7687
7276 7689
7276 7690
7276 7691
7276 7692
7276 7706
7276 7713
7276 7719
7276 7720
7276 7731
7276 7736
7276 7757
7276 7759
7276 7794
7276 7817
7276 7819
7276 7821
7276 7822
7276 7824
7276 7838
7276 7878
7276 7884
7276 7914
7276 7927
7276 7934
7276 7935
7276 7937
7276 7941
7276 7950
7276 7963
7276 7970
7276 7981
7276 7990
7276 7992
7276 7998
7276 7999
7276 8003
7276 8040
7276 8047
7276 8089
7276 8102
7276 8109
7276 8114
7276 8162
7276 8168
7276 8170
7276 8188
7276 8241
7276 8260
7276 8269
7277 7788
7281 7360
7281 7483
7281 7522
7281 7555
7281 7561
7281 7582
7281 7592
7281 7691
7281 7731
7281 7988
7281 8031
7281 8036
7281 8105
7281 8110
7281 8182
7284 7394
7286 7360
7286 7656
7286 7684
7286 7720
7286 7788
7286 7817
7287 7587
7290 7318
7290 7569
7290 7773
7290 7902
7291 7362
7292 7384
7292 7423
7292 7518
7292 7562
7292 7900
7292 7992
7292 8047
7292 8055
7292 8058
7292 8142
7292 8243
7295 7684
7295 7720
7295 7824
7295 8109
7295 8162
7295 8170
7297 7691
7297 8109
7297 8162
7299 7299
7300 7817
7301 7725
7305 7555
7306 7394
7309 7360
7315 7360
7315 7822
7318 7391
7318 8062
7319 7817
7320 7591
7320 7691
7320 8003
7320 8109
7320 8162
7321 7459
7321 7649
7321 7680
7321 7686
7321 7689
7321 7691
7321 7706
7321 7822
7321 7927
7321 7998
7321 8003
7321 8071
7321 8109
7321 8162
7321 8168
7321 8170
7321 8207
7325 7325
7329 7775
7332 7376
7332 7500
7332 7605
7332 7608
7332 7621
7332 7722
7332 7727
7332 7733
7332 7902
7332 7915
7332 7985
7332 8119
7334 7733
7340 7340
7346 7347
7346 7394
7346 7455
7346 7468
7346 7526
7346 7563
7346 7564
7346 7673
7346 7708
7346 7733
7346 7754
7346 7846
7346 7877
7346 8029
7346 8139
7346 8218
7347 7393
7349 7360
7349 7587
7349 7592
7349 7670
7349 7788
7350 8109
7350 8162
7352 7726
7353 8223
7354 8042
7360 7406
7360 7467
7360 7520
7360 7555
7360 7558
7360 7562
7360 7578
7360 7598
7360 7634
7360 7652
7360 7656
7360 7692
7360 7841
7360 7875
7360 7900
7360 8049
7360 8080
7360 8083
7360 8089
7360 8158
7366 8142
7368 8170
7376 8119
7378 7817
7379 7620
7381 7777
7381 8207
7383 7408
7383 7509
7383 7545
7383 7698
7383 7705
7383 7727
7383 7800
7383 7801
7383 7929
7383 7974
7383 8119
7385 7782
7385 8096
7386 7574
7386 7858
7386 7928
7386 7935
7386 8035
7386 8112
7386 8139
7387 7485
7387 7490
7387 7491
7387 7591
7387 7650
7387 7759
7387 7824
7387 7934
7387 7992
7387 8003
7387 8047
7387 8109
7387 8162
7387 8170
7387 8250
7388 8112
7389 7406
7390 7691
7390 7824
7391 7622
7391 7727
7393 7394
7393 7926
7393 8107
7394 7503
7394 7564
7394 7641
7394 7727
7394 7741
7394 7801
7394 7856
7394 7877
7394 7886
7394 7962
7394 8029
7394 8133
7394 8180
7395 7491
7395 7684
7395 7720
7395 7822
7395 7937
7395 8123
7396 8158
7398 7591
7398 7600
7398 7625
7398 7632
7398 7848
7398 7927
7398 7941
7399 7736
7400 7691
7400 7824
7400 8109
7400 8162
7401 7401
7403 7591
7403 7649
7403 7992
7406 7485
7406 7491
7406 7527
7406 7561
7406 7587
7406 7592
7406 7632
7406 7684
7406 7720
7406 7817
7406 7821
7406 7822
7406 7824
7406 7840
7406 7939
7406 7941
7406 7976
7406 7981
7406 7999
7406 8047
7406 8051
7406 8099
7406 8109
7406 8145
7406 8149
7406 8159
7406 8162
7406 8170
7406 8245
7407 7407
7407 8248
7408 7500
7408 7503
7408 7727
7408 7809
7408 7985
7408 8130
7409 7918
7412 7506
7412 7985
7413 7706
7413 8168
7415 7415
7415 7844
7418 7418
7418 7623
7419 7801
7420 7541
7423 7473
7423 8035
7423 8110
7427 7427
7437 7691
7438 8182
7439 7670
7440 7587
7448 7727
7450 7450
7451 7935
7453 7727
7455 7632
7455 7824
7456 7552
7456 7727
7456 8175
7460 7491
7463 7466
7463 7665
7463 8151
7465 7483
7467 7467
7467 7473
7467 7949
7468 7564
7470 8005
7473 7555
7473 7937
7473 8123
7473 8142
7473 8262
7476 8144
7477 7562
7477 7607
7477 7652
7478 7491
7478 7687
7478 7688
7478 7824
7478 7927
7478 7935
7478 8109
7478 8162
7481 7727
7481 8175
7482 7592
7483 7483
7483 8142
7485 8158
7486 7709
7486 8103
7487 7727
7487 8154
7489 7665
7489 7679
7490 7570
7490 7649
7490 7650
7490 7683
7490 7719
7490 7927
7490 7941
7490 8047
7491 7600
7491 7632
7491 7670
7491 7688
7491 7691
7491 7819
7491 7824
7491 7914
7491 7935
7491 7992
7491 7998
7491 7999
7491 8003
7491 8047
7491 8109
7491 8114
7491 8144
7491 8162
7492 7492
7494 7894
7498 7527
7498 7831
7500 7937
7500 7961
7503 7727
7503 7733
7505 7964
7506 7621
7506 7646
7506 7937
7509 7569
7509 7957
7509 8175
7511 7998
7512 8003
7515 7739
7515 8123
7516 7669
7516 7690
7516 7822
7516 7941
7518 7650
7518 7934
7518 7999
7518 8109
7518 8151
7518 8162
7518 8250
7522 7562
7523 8232
7525 8019
7526 7695
7527 7671
7529 7529
7529 7553
7529 7646
7529 7974
7530 7530
7534 7563
7543 7567
7543 7646
7549 7609
7549 7823
7553 7637
7553 7856
7553 7974
7553 8113
7553 8119
7553 8175
7554 8020
7554 8089
7555 7587
7555 7674
7555 7782
7555 7788
7555 7822
7555 7871
7555 7935
7557 8067
7557 8070
7558 7564
7558 7926
7558 8139
7562 7562
7562 7564
7562 7592
7562 7610
7562 7694
7562 7788
7562 7840
7562 7878
7562 8004
7562 8139
7563 7734
7564 7848
7568 7788
7569 7733
7569 8119
7570 7591
7570 7670
7570 7684
7570 7720
7570 7817
7570 7819
7570 7824
7570 7927
7570 7934
7570 7935
7570 7992
7570 7999
7570 8047
7570 8109
7570 8162
7570 8170
7571 7691
7571 7855
7571 7898
7571 8002
7571 8082
7574 7574
7579 7731
7583 7929
7584 7732
7587 7692
7587 7706
7587 7786
7587 8031
7587 8089
7587 8123
7587 8158
7587 8168
7587 8239
7588 8261
7589 7589
7589 7726
7589 8142
7589 8170
7591 7591
7591 7649
7591 7670
7591 7684
7591 7687
7591 7688
7591 7689
7591 7719
7591 7720
7591 7759
7591 7794
7591 7817
7591 7821
7591 7822
7591 7824
7591 7926
7591 7927
7591 7934
7591 7935
7591 7941
7591 7950
7591 7981
7591 7992
7591 8003
7591 8047
7591 8109
7591 8162
7591 8170
7592 7630
7592 7631
7592 7692
7592 7706
7592 7841
7592 8168
7593 7630
7596 7596
7596 7597
7596 7831
7596 7839
7596 7857
7596 7870
7596 7897
7596 8020
7597 7597
7597 7831
7597 7839
7597 7857
7597 7870
7597 7897
7597 8020
7600 8004
7602 7602
7605 8113
7610 7963
7615 8123
7621 7727
7621 7801
7621 7957
7621 8175
7625 7691
7625 7869
7625 7894
7625 7998
7625 8197
7628 7651
7628 8047
7629 8018
7630 7694
7632 7632
7632 7649
7632 7670
7632 7687
7632 7817
7632 7927
7632 7934
7632 7935
7632 7963
7632 7992
7632 7998
7632 8003
7632 8047
7632 8080
7632 8109
7632 8162
7632 8170
7632 8269
7633 7711
7633 7826
7636 7636
7636 7998
7636 8142
7637 7727
7637 7809
7638 7670
7646 7751
7646 8038
7649 7651
7649 7670
7649 7687
7649 7719
7649 7773
7649 7819
7649 7824
7649 7927
7649 7934
7649 7935
7649 7992
7649 7999
7649 8003
7649 8047
7649 8109
7649 8162
7649 8170
7650 7684
7650 7720
7650 7927
7650 7934
7650 7950
7650 7992
7650 7999
7650 8003
7650 8047
7650 8170
7651 7719
7651 7794
7655 7690
7656 7664
7656 7855
7656 8026
7656 8051
7661 7680
7662 7750
7662 7843
7662 8006
7662 8109
7662 8162
7663 8006
7666 7727
7666 7902
7670 7680
7670 7683
7670 7687
7670 7689
7670 7759
7670 7817
7670 7822
7670 7927
7670 7998
7670 8003
7670 8123
7670 8170
7672 8089
7676 7727
7676 7801
7677 7677
7680 7976
7681 7801
7681 8229
7683 7684
7683 7687
7683 7689
7683 7720
7683 7759
7683 7794
7683 7817
7683 7824
7683 7927
7683 7934
7683 7992
7683 8047
7683 8109
7683 8162
7683 8250
7684 7690
7684 7719
7684 7794
7684 7927
7684 7934
7684 7992
7684 8016
7684 8047
7684 8080
7684 8109
7684 8149
7684 8162
7685 7964
7687 7690
7687 7713
7687 7757
7687 7794
7687 7838
7687 7934
7687 7998
7687 8003
7687 8027
7688 7794
7688 7934
7688 7935
7688 7937
7688 7941
7688 7992
7688 8149
7688 8260
7689 7719
7689 7799
7689 7935
7690 7720
7690 7822
7690 7934
7690 7937
7690 7998
7690 8109
7690 8162
7691 7773
7691 7822
7691 7875
7691 7934
7691 7992
7691 7998
7692 7788
7692 8109
7692 8162
7692 8170
7693 8255
7694 7713
7694 8123
7698 7780
7703 7747
7704 7935
7704 8103
7704 8151
7705 7727
7705 8175
7706 7788
7706 7840
7713 7824
7713 8109
7713 8162
7719 7720
7719 7794
7719 7817
7719 7824
7719 7927
7719 7934
7719 7992
7719 8047
7720 7794
7720 7927
7720 7934
7720 7992
7720 8016
7720 8047
7720 8080
7720 8109
7720 8149
7720 8162
7722 7800
7725 8186
7725 8189
7725 8198
7725 8206
7725 8210
7725 8238
7725 8246
7725 8258
7726 7726
7726 7817
7726 7822
7726 8170
7727 7727
7727 7729
7727 7736
7727 7902
7727 7974
7727 8029
7727 8053
7727 8124
7729 8113
7731 7887
7732 7935
7732 8139
7733 7747
7733 7851
7733 7985
7734 8089
7736 7809
7736 8113
7737 8021
7740 8013
7742 8025
7744 8165
7747 7985
7747 8029
7754 7824
7754 8170
7755 7755
7759 7794
7759 7927
7759 7992
7759 8109
7759 8162
7767 7809
7768 7839
7771 7906
7773 7881
7773 7998
7773 8032
7773 8049
7774 7900
7775 7775
7775 8004
7775 8058
7775 8123
7779 8139
7787 8265
7788 8004
7788 8028
7788 8089
7788 8168
7794 7824
7794 7927
7794 7934
7794 7935
7794 7963
7794 7992
7794 7999
7794 8003
7794 8047
7794 8075
7794 8103
7794 8109
7794 8159
7794 8162
7801 8053
7801 8119
7801 8175
7809 8116
7817 7824
7817 7878
7817 7905
7817 7927
7817 7934
7817 7963
7817 7992
7817 8047
7817 8051
7817 8109
7817 8162
7817 8170
7819 7927
7819 7937
7819 8003
7821 7934
7821 7999
7821 8047
7821 8109
7821 8162
7822 7832
7822 7934
7822 8003
7822 8047
7822 8106
7822 8109
7822 8140
7822 8149
7822 8162
7823 8079
7824 7884
7824 7927
7824 7934
7824 7941
7824 7950
7824 7981
7824 7992
7824 8003
7824 8040
7824 8047
7829 8074
7831 7857
7831 7870
7831 7897
7831 8049
7839 7839
7839 7857
7839 7870
7839 7897
7839 8067
7839 8070
7839 8207
7840 8004
7840 8089
7840 8168
7841 8170
7848 7998
7851 7851
7855 7855
7855 7898
7855 7966
7855 8002
7857 7857
7857 7870
7857 7897
7857 8020
7870 7870
7870 7897
7870 8020
7874 8049
7875 7881
7878 7878
7878 8048
7884 7927
7884 7934
7884 7992
7884 8003
7884 8109
7884 8162
7884 8250
7894 8142
7894 8166
7894 8228
7894 8236
7894 8240
7894 8249
7897 7897
7897 8020
7900 8031
7900 8144
7902 7985
7902 8175
7907 8004
7908 8265
7912 8139
7918 7918
7922 7922
7927 7927
7927 7934
7927 7935
7927 7950
7927 7963
7927 7981
7927 7992
7927 7998
7927 7999
7927 8003
7927 8047
7927 8109
7927 8162
7927 8170
7927 8250
7934 7934
7934 7950
7934 8047
7934 8109
7934 8162
7934 8170
7935 7976
7935 7981
7935 8109
7935 8162
7937 8003
7937 8109
7937 8149
7937 8162
7937 8255
7940 7940
7941 7992
7941 8003
7941 8047
7941 8080
7941 8109
7941 8114
7941 8159
7941 8162
7950 7992
7950 8047
7950 8109
7950 8162
7952 8138
7957 8062
7963 7981
7970 8242
7974 8113
7976 7976
7976 8158
7981 7992
7981 8047
7985 7985
7985 8119
7989 7989
7992 8003
7992 8047
7992 8109
7992 8162
7992 8170
7999 8003
8001 8216
8003 8003
8003 8047
8003 8109
8003 8162
8004 8233
8004 8234
8005 8139
8012 8012
8013 8013
8013 8139
8016 8170
8034 8170
8040 8109
8040 8162
8045 8139
8047 8047
8047 8109
8047 8162
8047 8250
8049 8270
8049 8271
8058 8263
8062 8062
8072 8139
8079 8079
8080 8170
8103 8153
8103 8265
8104 8139
8105 8153
8109 8123
8112 8170
8119 8175
8123 8138
8123 8162
8123 8234
8139 8139
8141 8148
8142 8185
8142 8202
8148 8148
8149 8170
8158 8188
8185 8185
8205 8255
8211 8211
8216 8255
8217 8217
