# Nodes: 5000
0 3
0 10
0 11
0 17
0 19
0 25
0 39
0 52
0 58
0 69
0 78
0 95
1 9
1 12
1 44
1 60
1 65
1 66
1 76
1 77
1 80
1 90
1 97
1 4875
2 14
2 16
2 23
2 33
2 34
2 35
2 58
2 70
2 87
2 94
2 98
3 8
3 23
3 42
3 44
3 56
3 58
3 63
3 68
3 97
3 99
4 13
4 15
4 46
4 48
4 51
4 58
4 64
4 66
4 67
4 68
4 77
4 78
4 81
4 86
4 92
4 93
5 17
5 27
5 46
5 47
5 53
5 73
5 84
5 92
5 95
6 7
6 15
6 24
6 33
6 34
6 36
6 42
6 70
6 95
6 98
7 9
7 61
7 66
7 70
7 74
7 81
7 98
8 18
8 20
8 24
8 25
8 27
8 37
8 85
8 89
8 90
8 97
8 983
9 10
9 15
9 19
9 21
9 36
9 55
9 61
9 75
9 80
9 82
9 88
9 91
9 99
10 12
10 13
10 21
10 52
10 59
10 61
10 78
10 79
10 86
10 89
11 55
11 57
11 60
11 63
11 79
11 89
11 93
11 1348
12 25
12 31
12 32
12 38
12 41
12 48
12 51
12 54
12 58
12 61
12 74
12 78
12 81
12 3701
13 32
13 38
13 76
13 79
13 81
13 92
14 15
14 16
14 19
14 46
14 69
14 73
15 19
15 33
15 38
15 84
15 88
15 90
15 98
15 889
15 2833
16 30
16 37
16 40
16 43
16 51
16 58
16 64
16 67
16 68
16 4276
16 4999
17 33
17 35
17 40
17 44
17 74
17 75
17 84
17 87
18 26
18 28
18 41
18 62
18 88
18 93
18 4720
19 22
19 23
19 42
19 64
19 70
19 75
19 98
19 2296
20 31
20 40
20 41
20 64
20 69
20 73
20 80
20 1262
21 27
21 28
21 43
21 59
21 64
21 75
21 84
21 90
21 92
21 98
21 2203
21 2412
22 33
22 60
22 69
22 74
22 91
22 92
23 35
23 36
23 40
23 56
23 80
23 84
23 85
23 92
23 97
24 56
24 61
24 71
24 77
24 91
24 96
24 97
24 4176
25 39
25 45
25 56
25 65
25 99
26 29
26 30
26 45
26 51
26 54
26 55
26 67
26 76
26 89
26 91
27 51
27 66
27 87
27 92
27 95
28 34
28 35
28 38
28 40
28 65
28 72
28 75
28 82
28 83
28 87
28 92
29 47
29 58
29 64
29 74
29 75
29 78
29 86
29 95
29 3215
30 51
30 53
30 64
30 1832
31 33
31 56
31 81
31 91
31 98
32 41
32 52
32 58
32 79
32 86
32 87
32 90
32 97
33 80
33 87
33 89
34 63
34 70
34 75
34 81
34 83
34 97
35 44
35 57
35 64
35 76
35 83
35 84
35 86
35 90
36 46
36 49
36 72
36 90
36 96
37 49
37 52
37 67
37 89
37 99
37 3596
38 42
38 62
38 67
38 85
38 92
38 98
38 99
39 51
39 58
39 70
40 62
40 64
40 71
40 85
40 88
40 95
41 46
41 64
41 65
41 69
41 71
41 76
41 81
41 98
42 49
42 62
42 76
42 78
42 81
43 61
43 70
43 74
43 80
43 88
43 400
44 45
44 49
44 59
44 67
44 79
44 95
44 96
44 98
45 48
45 61
45 67
45 80
45 87
45 95
46 63
46 74
46 88
46 1173
47 66
47 74
47 77
47 85
47 89
48 55
48 64
48 88
48 97
48 2296
49 86
49 88
49 936
49 2877
49 3765
50 57
50 69
50 70
50 78
50 85
51 54
51 66
51 77
51 81
51 90
51 501
52 59
52 67
52 91
52 95
53 65
53 78
53 230
54 70
54 79
55 66
55 79
55 87
55 97
55 3480
56 62
56 63
56 71
56 73
56 93
57 64
57 76
57 80
57 81
57 85
57 87
57 94
57 98
58 73
58 75
58 77
58 81
58 99
59 61
59 71
59 72
59 74
59 75
59 77
59 88
60 85
60 96
60 97
60 253
61 75
61 85
61 90
61 1146
62 84
62 91
62 2783
63 67
63 79
63 875
64 85
64 86
64 87
64 1298
64 4428
65 68
65 72
65 75
65 76
65 85
65 90
66 67
66 88
66 93
67 69
67 71
67 73
67 93
67 2824
68 93
68 97
69 72
69 73
69 83
69 96
70 78
70 83
70 85
70 87
70 99
70 2555
71 83
71 86
71 97
71 98
71 1397
71 1736
72 87
72 2712
73 76
73 79
73 97
73 1476
74 82
74 92
74 4176
75 78
75 81
75 85
76 4676
77 89
77 2499
78 89
78 95
80 82
80 97
80 4711
80 4749
81 93
81 397
82 87
82 91
82 99
83 97
84 88
84 97
84 98
84 1132
84 4471
85 92
85 95
85 1680
85 3027
86 2567
87 89
87 95
87 97
88 95
88 2446
89 93
89 94
89 95
90 91
90 93
91 1555
93 99
93 3780
94 96
94 2940
96 99
100 107
100 113
100 152
100 169
100 170
100 184
100 786
101 134
101 142
101 157
101 159
101 161
101 162
101 163
101 171
101 178
101 184
101 195
102 106
102 136
102 143
102 147
102 156
102 176
102 178
102 198
103 112
103 118
103 135
103 147
103 156
103 159
103 186
103 189
103 190
103 196
103 198
104 118
104 123
104 133
104 134
104 147
104 172
104 174
104 177
104 187
105 124
105 127
105 131
105 164
105 169
105 182
105 184
105 912
106 132
106 140
106 148
106 151
106 155
106 163
106 169
106 174
106 179
106 191
106 194
106 199
107 121
107 131
107 146
107 154
107 155
107 157
107 163
107 167
107 171
107 173
107 174
107 180
107 183
107 1502
108 116
108 121
108 134
108 137
108 153
108 180
108 181
108 191
108 197
108 198
109 135
109 144
109 148
109 166
109 170
109 177
109 178
109 179
109 194
109 3664
110 113
110 116
110 125
110 133
110 138
110 142
110 143
110 145
110 156
110 180
110 181
110 189
110 199
110 449
110 1309
110 2787
111 112
111 120
111 127
111 128
111 133
111 144
111 147
111 153
111 160
111 163
111 165
111 168
111 177
111 183
111 184
111 187
112 116
112 118
112 127
112 131
112 132
112 138
112 161
112 168
112 181
112 187
112 192
112 4192
113 114
113 119
113 127
113 137
113 138
113 139
113 148
113 151
113 153
113 158
113 160
113 168
113 181
113 192
114 141
114 149
114 153
114 157
114 159
114 161
114 164
114 171
114 172
114 174
115 133
115 145
115 150
115 151
115 163
115 175
115 178
115 180
115 183
115 190
115 195
115 1101
115 1996
116 124
116 125
116 143
116 157
116 165
116 166
116 169
116 175
116 191
117 141
117 142
117 153
117 165
117 171
117 172
117 189
117 195
117 196
117 3860
118 148
118 151
118 173
118 178
118 179
118 187
118 196
119 130
119 132
119 138
119 146
119 154
119 163
119 172
119 1215
120 124
120 128
120 141
120 143
120 158
120 165
120 194
120 198
121 125
121 129
121 149
121 150
121 170
121 172
121 194
122 133
122 149
122 150
122 160
122 170
122 173
122 181
122 185
122 191
122 192
123 135
123 136
123 167
123 174
123 177
123 199
124 154
124 172
124 184
124 198
124 1589
125 131
125 147
125 149
125 150
125 157
125 185
125 189
125 196
125 3116
126 151
126 164
126 165
126 173
126 179
126 181
126 191
126 2813
126 3097
126 4046
127 138
127 139
127 153
127 154
127 157
127 169
127 180
127 188
127 192
127 811
128 136
128 143
128 146
128 155
128 160
128 182
128 191
128 194
128 195
129 139
129 140
129 152
129 154
129 179
129 197
129 198
129 2901
129 4139
129 4768
130 136
130 142
130 144
130 160
130 164
130 181
130 183
130 186
130 196
130 197
131 136
131 143
131 144
131 147
131 149
131 168
131 173
131 181
131 182
131 186
131 188
131 199
132 144
132 149
132 170
132 176
132 185
132 194
132 2680
133 142
133 143
133 151
133 159
133 164
133 172
133 179
133 183
134 136
134 163
134 166
134 175
134 185
135 137
135 150
135 156
135 163
135 181
136 157
136 166
136 179
136 181
136 197
137 138
137 157
137 159
137 172
137 189
137 192
137 199
137 1606
137 1636
138 155
138 156
138 161
138 173
138 176
138 197
139 145
139 149
139 150
139 152
139 163
139 172
139 190
139 195
139 196
140 154
140 166
140 171
140 190
140 196
141 147
141 149
141 154
141 156
141 158
141 163
141 187
142 157
142 159
142 173
142 179
142 181
142 182
142 191
142 192
142 195
143 146
143 167
143 176
143 193
143 196
143 197
143 199
143 368
144 145
144 146
144 153
144 156
144 158
144 161
144 164
144 196
144 198
144 1914
145 154
146 162
146 163
146 166
146 194
146 2027
146 2870
147 169
147 176
147 177
148 160
148 164
148 178
148 183
148 192
148 195
148 2755
149 161
149 168
149 172
149 174
149 177
149 180
149 181
149 182
149 188
149 189
149 192
149 4815
150 152
150 155
151 162
151 169
151 170
151 192
151 194
151 198
151 3213
151 4919
152 160
152 165
152 168
152 171
152 173
153 164
153 168
153 173
153 177
153 183
153 189
154 158
154 167
154 173
154 195
154 4766
155 156
155 174
155 182
155 3341
156 161
156 166
156 168
156 173
156 182
156 196
156 199
156 3462
157 160
157 161
158 165
158 176
158 184
158 199
159 173
159 183
159 388
160 165
160 183
160 193
160 198
161 169
161 171
161 172
161 197
162 175
162 177
162 186
162 2963
163 165
164 173
164 199
165 171
165 192
165 193
165 197
166 172
166 188
166 193
167 194
168 171
168 176
168 177
168 178
169 175
169 192
169 194
169 534
169 4275
170 174
170 184
170 199
171 174
171 182
172 174
172 179
172 182
172 183
172 188
172 189
172 199
173 189
174 176
174 183
174 197
175 193
175 199
176 196
177 185
179 183
179 190
179 191
179 198
179 199
180 196
181 187
181 196
182 186
183 185
183 187
185 189
185 195
185 199
186 194
187 194
187 3638
188 195
189 3865
190 193
192 194
192 1348
193 199
194 195
194 198
195 197
195 2501
198 2904
198 3612
199 2021
200 201
200 206
200 224
200 225
200 237
200 238
200 243
200 261
200 271
200 281
200 288
201 216
201 243
201 252
201 253
201 280
201 283
201 290
201 297
201 299
201 419
202 206
202 209
202 210
202 213
202 214
202 228
202 278
202 4839
203 206
203 232
203 243
203 244
203 256
203 260
203 271
203 291
203 297
204 212
204 219
204 231
204 232
204 247
204 260
204 271
204 274
204 275
204 278
204 3385
205 206
205 213
205 214
205 215
205 220
205 246
205 248
205 257
205 296
206 207
206 215
206 220
206 221
206 223
206 229
206 247
206 258
206 268
206 276
206 284
206 287
206 299
207 212
207 213
207 222
207 2035
208 215
208 217
208 220
208 250
208 258
208 287
208 293
208 298
209 215
209 220
209 236
209 237
209 247
209 270
209 272
209 278
209 281
209 286
209 299
210 211
210 217
210 219
210 231
210 244
210 245
210 249
210 259
210 268
210 269
210 279
210 286
210 298
211 217
211 232
211 248
211 255
211 266
211 291
211 295
211 4645
212 227
212 237
212 266
212 297
212 3727
213 215
213 216
213 219
213 240
213 251
213 253
213 255
213 267
213 3722
214 232
214 241
214 244
214 249
214 252
214 264
214 276
214 285
215 228
215 234
215 244
215 246
215 247
215 256
215 259
215 260
215 265
215 4275
216 219
216 244
216 267
216 270
216 271
216 278
216 282
216 1227
216 3045
217 219
217 220
217 248
217 282
217 286
217 288
217 290
217 297
217 1137
218 245
218 247
218 264
218 283
218 288
218 4455
219 236
219 244
219 256
219 257
219 278
219 298
219 299
219 3342
220 223
220 236
220 239
220 244
220 247
220 257
220 260
220 266
220 274
220 279
220 285
220 286
220 299
221 223
221 236
221 249
221 271
221 294
222 223
222 228
222 232
222 233
222 238
222 244
222 248
222 254
222 260
222 279
222 280
222 290
223 238
223 257
223 267
223 283
223 290
223 293
223 1768
224 234
224 253
224 276
224 3106
225 227
225 232
225 234
225 249
225 261
225 275
226 231
226 237
226 251
226 263
226 273
226 280
226 284
226 287
226 293
227 268
227 275
227 280
227 297
228 234
228 247
228 250
228 258
228 263
228 265
228 268
228 269
228 284
229 250
229 254
229 261
229 264
229 283
229 285
230 234
230 240
230 257
230 262
230 286
230 292
231 237
231 238
231 258
231 282
231 286
231 289
231 431
232 234
232 241
232 242
232 244
232 247
232 253
232 254
232 256
232 258
232 269
232 271
232 286
232 3592
233 254
233 256
233 276
233 295
234 242
234 264
234 265
234 270
234 276
234 281
234 282
234 289
234 293
234 1872
234 3864
235 238
235 241
235 248
235 249
235 258
235 260
235 273
235 278
235 294
236 265
236 270
237 249
237 255
237 259
237 272
237 274
237 286
237 297
237 4995
238 239
238 246
238 247
238 257
238 265
238 269
238 273
238 282
238 287
238 295
239 240
239 246
239 250
239 252
239 264
239 266
239 277
239 278
239 285
239 286
240 244
240 250
240 263
240 264
240 265
240 291
241 242
241 247
241 271
241 280
241 282
241 296
241 580
241 1725
241 4181
242 260
242 268
242 286
242 3881
243 252
243 254
243 276
243 277
244 259
244 276
244 280
244 281
244 289
244 296
244 297
245 269
245 277
245 284
245 287
246 254
246 264
246 272
246 274
246 276
246 286
246 289
247 253
247 256
247 261
247 266
247 268
247 279
247 286
247 290
247 295
248 252
248 272
248 289
248 298
249 260
249 266
249 267
249 271
249 273
249 276
249 283
249 284
249 290
249 297
249 1010
249 4770
250 258
250 280
250 290
251 262
251 266
251 275
251 277
251 295
251 2352
252 254
252 298
252 2926
253 257
253 261
253 280
253 283
253 284
253 285
253 299
254 256
254 268
254 275
254 286
254 288
254 291
254 294
255 265
255 269
255 275
255 284
255 4768
256 257
256 266
256 270
256 279
256 280
256 293
256 298
256 3030
257 266
257 270
257 273
257 290
257 297
257 298
257 1161
257 3601
257 4210
258 263
258 276
258 286
259 272
259 275
259 286
259 294
259 2082
260 261
260 280
260 281
260 288
261 275
261 279
261 288
261 290
261 4395
262 273
262 276
262 277
262 294
262 296
262 2854
263 273
263 274
263 281
263 283
263 292
263 294
263 295
263 3483
264 272
264 276
264 290
265 275
265 282
265 285
265 287
266 267
266 281
266 290
267 279
267 281
267 287
268 272
268 276
268 279
268 295
268 2734
268 3099
269 270
269 274
269 287
269 4389
270 275
270 279
270 294
270 299
271 288
271 289
271 292
271 4953
272 291
273 278
273 281
273 294
273 2330
274 277
274 291
274 297
274 1725
275 276
275 3184
276 277
276 282
276 285
277 284
277 295
277 297
279 288
279 290
279 297
280 2700
281 295
281 2420
281 2985
282 286
284 295
284 296
285 290
285 1557
286 293
287 296
288 292
288 293
288 294
288 4284
289 297
289 2343
289 3653
290 294
291 631
292 295
295 1702
300 304
300 312
300 325
300 330
300 341
300 345
300 367
300 381
301 339
301 340
301 341
301 343
301 344
301 348
301 360
301 375
301 393
301 2077
302 324
302 357
302 366
302 371
302 372
302 375
302 381
302 387
302 395
302 1247
303 310
303 335
303 346
303 365
303 372
303 376
303 389
303 391
303 394
303 396
303 4920
304 308
304 316
304 330
304 343
304 354
304 377
304 381
304 383
304 384
304 386
304 393
304 398
305 306
305 338
305 350
305 363
305 372
305 3446
306 314
306 334
306 338
306 343
306 350
306 354
306 360
306 371
306 374
306 391
306 570
306 1622
307 317
307 318
307 324
307 330
307 344
307 353
307 371
307 374
307 3171
307 4729
308 313
308 336
308 339
308 351
308 362
308 366
308 368
308 369
308 384
309 316
309 321
309 349
309 354
309 370
309 378
309 382
309 387
310 316
310 357
310 389
310 397
310 2153
311 312
311 341
311 351
311 352
311 353
311 354
311 369
311 371
311 380
311 381
311 382
311 386
312 313
312 323
312 332
312 340
312 360
312 371
312 397
312 1136
313 331
313 332
313 340
313 343
313 348
313 354
313 368
313 380
313 385
314 330
314 349
314 352
314 355
314 362
314 364
314 370
314 392
314 397
314 1282
315 343
315 345
315 364
315 372
315 374
315 375
315 379
315 393
315 804
316 323
316 342
316 343
316 349
316 355
316 357
316 363
316 368
316 375
316 385
316 391
316 394
317 318
317 323
317 328
317 335
317 339
317 343
317 351
317 356
317 365
317 384
317 385
317 389
317 394
317 398
318 323
318 325
318 338
318 346
318 366
318 367
318 368
318 375
318 382
318 388
318 394
318 399
318 2753
319 323
319 328
319 336
319 338
319 359
319 382
319 388
319 1152
320 337
320 339
320 342
320 344
320 352
320 369
320 382
320 384
320 395
320 1940
321 322
321 336
321 346
321 352
321 354
321 361
321 367
321 374
321 376
321 377
321 388
321 392
322 329
322 345
322 348
322 372
322 373
322 382
322 387
322 395
323 325
323 339
323 344
323 357
323 361
323 363
323 366
323 387
323 395
324 327
324 334
324 351
324 355
324 365
324 372
324 379
324 389
324 397
324 1111
325 334
325 341
325 354
325 367
325 384
326 346
326 356
326 363
326 376
326 397
327 343
327 367
327 378
327 379
328 333
328 339
328 344
328 347
328 353
328 364
328 378
328 379
328 393
328 2361
328 2890
329 335
329 351
329 357
329 366
329 370
329 378
329 379
329 390
329 397
330 335
330 344
330 349
330 351
330 363
330 368
331 336
331 347
331 348
331 353
331 360
331 361
331 384
331 396
331 2331
332 340
332 357
332 364
332 372
332 373
332 374
332 390
332 392
332 1060
333 334
333 339
333 352
333 370
333 385
333 387
333 393
334 343
334 352
334 357
334 358
334 392
335 343
335 345
335 350
335 358
335 390
335 1031
336 352
336 376
336 389
337 352
337 359
337 368
337 375
337 384
337 391
337 392
337 397
337 399
338 352
338 374
338 387
338 395
339 367
339 381
339 385
339 394
340 360
340 361
340 390
340 393
341 356
341 396
342 350
342 351
342 1703
343 363
343 370
343 380
343 393
344 367
345 346
345 350
345 376
345 380
345 381
345 1662
346 359
346 361
346 381
346 385
346 395
346 399
347 348
347 359
347 362
347 370
347 372
347 376
347 384
347 394
348 361
348 364
349 350
349 363
349 372
349 396
349 1154
349 3610
349 3625
349 4117
350 351
350 361
350 387
350 397
351 354
351 367
351 371
351 372
351 379
351 391
351 392
351 398
352 370
352 378
352 389
352 396
353 357
353 362
353 364
353 365
353 377
353 390
354 378
354 386
354 395
354 397
355 367
355 369
356 365
356 378
356 383
357 369
357 379
357 388
357 860
357 3373
358 370
358 371
358 394
358 3615
359 361
359 364
359 373
359 374
359 379
359 387
359 389
359 390
359 391
359 392
359 394
359 396
359 4123
360 367
360 378
360 380
360 394
360 395
361 364
361 366
361 374
361 377
361 391
361 396
361 1222
362 365
362 367
362 368
362 369
362 372
362 384
362 394
362 1730
362 2978
362 4263
363 368
363 370
363 372
363 373
363 377
363 383
363 386
363 395
363 3849
364 375
364 384
365 376
365 387
365 392
366 369
366 4143
367 368
367 375
367 378
367 391
368 373
368 375
368 394
368 3160
369 373
369 389
370 379
370 396
371 379
372 376
372 382
372 387
372 388
372 395
372 1380
373 379
374 382
374 385
374 389
374 390
374 393
375 389
375 391
375 398
375 1457
375 4142
376 382
376 396
377 382
377 1371
377 3115
378 385
378 395
378 398
379 380
379 381
379 383
379 393
380 384
380 394
381 386
381 1833
382 392
384 385
384 392
384 396
384 1010
385 394
385 399
386 396
387 392
388 390
389 392
389 399
391 399
391 711
393 4028
394 396
396 397
397 4058
400 419
400 446
400 450
400 463
401 406
401 409
401 415
401 423
401 426
401 447
401 452
401 471
401 475
401 481
401 489
401 490
402 405
402 407
402 410
402 417
402 419
402 431
402 434
402 438
402 463
402 468
402 475
402 477
402 3786
403 417
403 426
403 429
403 448
403 449
403 469
403 470
403 488
403 493
403 1725
403 3613
404 405
404 406
404 408
404 431
404 445
404 451
404 460
404 462
404 474
404 484
405 431
405 433
405 435
405 442
405 448
405 451
405 453
405 456
405 463
405 467
405 482
406 410
406 418
406 421
406 422
406 424
406 432
406 433
406 438
406 448
406 462
406 474
406 479
406 486
406 488
406 490
406 493
407 411
407 429
407 438
407 450
407 453
407 479
407 485
407 486
407 487
407 495
408 416
408 417
408 419
408 431
408 433
408 435
408 440
408 444
408 456
408 465
408 469
408 498
409 412
409 415
409 416
409 420
409 458
409 466
409 475
409 477
409 495
410 428
410 429
410 442
410 459
410 462
410 474
410 475
410 479
411 416
411 424
411 429
411 434
411 444
411 458
411 465
411 466
411 470
411 471
411 478
411 489
411 2877
412 423
412 431
412 434
412 436
412 446
412 457
412 465
412 467
412 469
412 470
412 471
412 481
412 497
413 414
413 418
413 419
413 435
413 436
413 444
413 445
413 456
413 477
413 485
413 491
414 416
414 425
414 427
414 432
414 436
414 439
414 440
414 489
415 423
415 429
415 431
415 432
415 466
415 496
415 497
416 426
416 428
416 434
416 435
416 441
416 458
417 430
417 447
417 451
417 457
417 470
417 484
417 491
417 501
418 430
418 448
418 450
418 460
418 468
418 491
419 436
419 445
419 446
419 456
419 463
419 465
419 487
419 497
419 782
420 427
420 437
420 459
420 471
420 474
420 482
420 488
420 494
420 601
421 425
421 442
421 457
421 463
421 477
421 480
421 495
422 425
422 431
422 433
422 486
422 493
422 494
422 497
422 1444
422 2235
423 432
423 443
423 456
423 476
423 485
423 496
423 1558
424 438
424 467
424 474
424 475
424 476
424 482
424 489
424 4471
425 429
425 431
425 443
425 447
425 450
425 453
425 461
425 462
425 466
425 470
425 471
425 474
425 477
425 478
425 479
425 486
425 492
425 499
426 437
426 450
426 456
426 460
426 470
426 480
426 484
426 487
426 490
426 492
426 498
426 652
426 2917
427 435
427 437
427 442
427 454
427 457
427 461
427 465
427 481
427 713
428 439
428 453
428 475
428 477
428 488
429 439
429 475
429 483
429 489
429 806
429 2376
429 3009
429 4601
430 450
430 457
430 466
430 476
430 479
430 494
431 436
431 445
431 452
431 472
431 476
431 483
431 496
431 497
431 498
432 435
432 442
432 444
432 448
432 476
432 490
433 437
433 460
433 463
433 465
433 486
434 444
434 458
434 474
435 438
435 445
435 447
435 449
435 459
435 468
435 478
435 482
435 1690
436 437
436 442
436 450
436 457
436 486
436 1095
437 446
437 458
437 462
437 467
438 470
439 460
439 476
439 477
439 496
439 3515
440 443
440 450
440 465
440 468
440 472
440 475
441 444
441 451
441 452
441 458
441 471
441 494
441 495
442 451
442 455
442 466
442 471
442 474
442 484
442 2520
442 3587
443 449
443 452
443 458
443 463
443 465
443 472
443 496
443 1233
444 456
444 461
444 462
444 479
444 480
444 492
445 450
445 452
445 453
445 454
445 459
445 465
445 479
445 491
445 4422
446 447
446 448
446 449
446 450
446 455
446 458
446 473
446 479
446 481
446 496
447 452
447 475
447 487
447 489
447 2817
448 451
448 454
448 459
448 461
448 465
448 468
448 473
448 475
449 450
449 465
449 469
449 497
450 464
450 488
450 491
451 453
451 454
451 457
451 463
451 468
451 485
451 494
451 498
451 3645
452 453
452 454
452 459
452 476
452 482
452 499
452 4394
453 467
453 473
453 485
453 486
454 455
454 456
454 458
454 464
454 475
454 486
454 492
454 494
455 491
455 497
455 2413
456 473
456 485
456 493
457 464
457 466
457 467
457 489
457 2540
458 470
459 467
459 478
459 484
460 471
460 481
460 490
460 499
461 470
461 473
461 476
461 486
461 489
462 484
462 490
462 4266
463 467
464 475
464 481
464 487
465 467
465 479
465 483
465 488
465 490
465 492
465 1770
466 470
466 476
466 487
467 489
467 497
468 491
468 493
468 494
468 499
468 1925
469 470
469 472
469 473
469 475
469 479
469 482
469 497
470 493
470 497
471 490
471 496
472 475
472 481
472 483
472 486
473 487
473 494
473 2874
474 495
474 498
475 1196
476 482
477 486
477 499
477 4661
478 483
478 493
478 497
478 499
480 484
480 495
481 494
482 490
482 495
483 492
484 491
484 499
484 3475
485 487
485 491
485 1418
486 3484
487 3424
488 492
488 493
488 494
488 496
488 3483
489 494
490 492
491 879
493 498
493 3915
493 4371
494 499
500 501
500 514
500 520
500 532
500 537
500 565
500 566
500 570
500 594
501 507
501 530
501 533
501 534
501 542
501 548
501 549
501 550
501 552
501 553
501 557
501 566
501 582
501 591
501 597
502 513
502 525
502 551
502 586
502 599
502 1140
503 506
503 524
503 525
503 526
503 528
503 538
503 540
503 548
503 556
503 562
503 573
503 578
503 579
503 587
503 599
503 2306
503 2674
503 3108
504 513
504 515
504 519
504 521
504 531
504 535
504 536
504 537
504 540
504 545
504 564
504 566
504 571
504 589
504 595
504 596
505 523
505 537
505 542
505 549
505 550
505 553
505 560
505 572
505 591
505 595
505 597
506 535
506 536
506 539
506 541
506 546
506 559
506 568
506 590
506 596
506 2211
507 525
507 529
507 536
507 537
507 563
507 572
507 585
508 511
508 525
508 530
508 531
508 537
508 551
508 568
508 575
508 587
508 593
509 529
509 559
509 561
509 570
509 575
509 593
509 594
509 595
510 523
510 529
510 530
510 545
510 548
510 559
510 587
510 592
510 596
510 4052
511 519
511 526
511 547
511 567
511 572
511 582
511 583
511 586
511 588
512 517
512 534
512 537
512 538
512 539
512 540
512 546
512 551
512 554
512 562
512 580
512 583
512 592
513 531
513 536
513 552
513 554
513 579
513 580
513 583
514 531
514 547
514 564
514 570
514 571
514 575
514 580
514 591
514 596
515 517
515 523
515 529
515 537
515 540
515 543
515 553
515 573
515 584
515 590
516 524
516 529
516 544
516 553
516 557
516 580
516 598
517 540
517 547
517 587
517 595
518 533
518 550
518 552
518 553
518 555
518 557
518 563
518 567
518 569
519 525
519 526
519 540
519 578
519 597
520 523
520 561
520 562
520 571
520 573
520 579
520 581
520 594
521 527
521 532
521 563
521 572
521 576
522 534
522 539
522 572
522 574
522 588
522 3257
523 525
523 540
523 542
523 549
523 561
523 565
523 572
523 587
523 590
523 1885
524 529
524 533
524 555
524 563
524 567
524 588
525 530
525 535
525 554
525 558
525 562
525 563
525 574
525 583
525 584
525 595
525 2072
526 529
526 532
526 535
526 543
526 552
526 555
526 587
526 598
527 557
527 567
527 590
527 1003
528 538
528 541
528 550
528 564
528 587
528 590
528 597
528 598
529 537
529 573
529 581
529 586
530 535
530 539
530 566
530 568
530 580
530 585
530 599
531 534
531 538
531 545
531 546
531 562
531 565
531 572
531 574
531 587
531 589
531 591
531 594
531 597
531 2985
532 540
532 541
532 545
532 550
532 558
532 574
532 591
532 592
532 599
533 554
533 556
533 564
533 565
533 593
534 557
534 567
534 579
534 595
534 602
535 537
535 541
535 543
535 548
535 559
535 561
535 567
535 578
535 583
535 587
535 596
535 597
535 762
535 4093
536 538
536 552
536 580
536 582
536 585
536 586
536 888
537 539
537 552
537 559
537 563
537 577
537 580
538 546
538 550
538 552
538 553
538 556
538 563
538 590
538 3806
539 548
539 572
539 580
539 584
539 592
539 594
540 543
540 552
540 563
540 583
540 589
541 578
541 586
541 589
541 4114
542 566
542 568
542 575
542 576
542 577
543 548
543 555
543 556
543 564
543 572
543 589
543 596
543 599
544 553
544 554
544 556
544 584
544 585
544 591
545 547
545 554
545 566
545 569
545 571
545 582
545 583
545 596
545 597
546 553
546 557
546 566
546 573
546 592
547 567
547 568
547 576
547 582
547 591
547 599
548 561
548 563
548 568
548 577
548 582
548 590
548 591
549 578
549 585
549 587
549 590
549 594
549 597
549 3395
549 3981
550 568
550 589
550 592
550 598
550 1506
551 567
551 571
551 573
551 575
551 583
551 598
551 599
552 561
552 565
552 568
552 570
552 579
552 593
553 560
553 574
553 577
553 587
553 595
553 599
554 561
554 564
554 575
554 590
554 596
555 578
556 557
556 558
556 562
556 564
556 571
556 583
556 584
556 596
557 558
557 565
557 594
557 599
558 560
558 564
558 572
558 583
558 586
558 587
558 594
558 599
559 562
559 570
559 572
559 579
559 582
559 585
559 590
560 564
560 567
560 599
561 571
561 582
561 590
561 599
562 574
562 576
562 594
563 581
563 596
563 3076
564 578
564 580
564 583
564 586
564 590
564 594
565 569
565 2149
566 569
566 1210
567 577
567 579
567 590
568 572
568 597
568 598
568 4003
569 580
569 593
569 1069
569 2351
570 572
570 588
570 594
570 598
571 572
571 574
571 586
571 592
571 3406
572 573
572 579
572 592
572 599
572 2916
573 578
573 598
573 3774
574 576
574 4347
575 590
576 584
577 591
577 596
577 598
577 3468
578 597
578 2208
579 597
579 2928
580 582
580 585
580 588
580 596
581 583
581 706
581 1995
582 583
582 588
582 599
582 4983
583 594
583 2445
584 590
585 593
585 3999
587 592
587 595
587 597
587 598
587 599
587 3861
588 1409
588 2596
590 596
592 593
592 598
592 1405
593 796
594 2046
594 4954
596 597
598 2481
600 611
600 613
600 645
600 648
600 650
600 665
600 666
600 687
600 691
600 699
600 3527
601 605
601 609
601 638
601 646
601 672
601 675
601 680
601 681
601 688
601 694
602 612
602 618
602 635
602 644
602 646
602 655
602 679
602 695
602 696
603 624
603 638
603 646
603 648
603 685
603 692
603 693
604 616
604 621
604 627
604 659
604 666
604 681
604 687
604 695
605 617
605 625
605 637
605 640
605 641
605 642
605 646
605 651
605 665
605 674
605 677
605 689
605 693
605 699
606 619
606 620
606 628
606 639
606 643
606 645
606 653
606 662
606 689
606 696
606 697
606 2050
607 616
607 621
607 623
607 630
607 633
607 634
607 635
607 646
607 663
607 669
607 670
607 676
607 691
608 622
608 634
608 636
608 644
608 651
608 667
608 1693
609 626
609 629
609 633
609 636
609 648
609 649
609 679
609 690
609 1557
610 616
610 624
610 625
610 629
610 630
610 644
610 653
610 655
610 671
610 672
610 674
610 689
610 690
610 695
610 698
611 613
611 616
611 652
611 653
611 658
611 661
611 673
611 686
611 688
611 691
612 617
612 642
612 653
612 688
613 623
613 625
613 631
613 634
613 635
613 637
613 643
613 654
613 680
613 3383
614 639
614 644
614 649
614 654
614 656
614 670
614 674
614 677
615 617
615 641
615 649
615 661
615 671
615 1075
615 2079
615 4650
616 621
616 623
616 631
616 656
616 677
616 689
616 693
616 697
617 637
617 648
617 663
617 677
617 679
617 683
617 686
617 687
617 695
618 621
618 635
618 666
618 676
618 682
618 690
618 694
618 698
618 699
619 620
619 635
619 636
619 642
619 656
619 686
620 621
620 638
620 646
620 674
621 627
621 632
621 641
621 647
621 648
621 649
621 675
621 687
621 691
622 630
622 635
622 637
622 655
622 666
622 675
622 689
622 1679
623 633
623 658
623 660
623 672
623 678
623 681
623 687
624 633
624 641
624 653
624 657
624 659
624 680
624 691
625 626
625 628
625 630
625 633
625 641
625 647
625 650
625 666
625 675
625 681
625 692
625 693
626 645
626 649
626 658
626 672
626 675
626 690
626 696
627 644
627 663
627 667
627 671
627 692
627 3721
628 633
628 640
628 643
628 651
628 653
628 654
628 661
628 665
629 635
629 652
629 653
629 656
629 669
629 680
629 693
629 694
630 635
630 642
630 653
630 655
630 661
630 686
630 691
630 692
631 634
631 637
631 654
631 659
631 664
631 684
631 693
631 699
631 2220
632 636
632 639
632 662
632 663
632 675
632 677
632 678
632 689
632 696
632 699
633 636
633 645
633 649
633 650
633 673
633 679
633 682
633 696
633 2583
634 644
634 657
634 658
634 677
634 681
634 1113
635 645
635 699
635 2769
636 641
636 642
636 652
636 666
636 669
636 675
636 695
637 638
637 643
637 659
637 673
637 676
637 683
637 684
637 698
638 640
638 653
638 661
638 681
638 689
638 694
638 696
638 697
638 1647
639 650
639 656
639 665
639 685
639 686
639 687
639 691
639 2940
640 647
640 648
640 650
640 684
641 680
641 681
641 695
641 697
642 667
642 686
643 650
643 670
643 674
643 688
643 3975
644 669
644 683
644 686
644 693
644 4898
645 647
645 666
645 667
645 679
645 685
645 695
645 697
646 654
646 657
646 659
646 666
646 675
646 678
646 679
646 680
646 683
646 687
647 655
647 656
647 662
647 665
647 676
647 692
647 693
647 698
648 664
648 693
648 697
649 652
649 661
649 662
649 667
649 668
649 672
649 676
649 685
649 694
649 1448
650 655
650 657
650 659
650 667
650 674
650 687
651 669
651 682
651 685
652 654
652 660
652 663
652 684
652 690
653 664
653 666
653 683
653 684
653 685
653 687
654 656
654 659
654 668
654 681
654 685
654 687
654 692
655 671
655 676
655 687
655 691
655 697
656 668
656 681
656 692
656 697
657 668
657 670
657 673
657 683
658 660
658 665
658 683
658 690
658 692
658 698
659 660
659 663
659 680
659 683
659 2155
660 667
660 674
660 698
661 673
661 681
662 665
662 678
662 687
662 697
663 686
664 691
664 693
664 698
665 680
666 667
666 671
666 678
666 685
666 688
666 696
666 699
667 670
667 1847
668 671
668 678
668 679
668 690
668 3430
669 676
669 698
670 698
671 672
671 699
671 2078
673 680
673 681
673 683
673 698
674 679
674 696
674 2632
675 682
675 683
675 692
675 695
676 680
676 694
677 683
677 691
678 680
678 684
679 682
679 698
680 683
680 2551
681 690
681 695
682 686
682 695
683 684
683 3155
684 2928
685 692
685 694
686 698
688 694
688 697
688 4999
689 695
690 699
692 695
692 697
696 697
699 2403
700 709
700 724
700 734
700 745
700 747
700 763
700 766
700 774
700 778
700 784
700 796
701 709
701 714
701 716
701 717
701 718
701 746
701 755
701 759
701 764
701 766
701 769
701 774
701 799
701 1884
701 4716
702 714
702 716
702 721
702 725
702 735
702 770
702 785
702 797
702 799
702 3526
703 709
703 714
703 719
703 730
703 746
703 749
703 756
703 786
703 790
704 714
704 717
704 733
704 741
704 747
704 754
704 766
704 785
704 787
705 712
705 715
705 728
705 738
705 747
705 748
705 753
705 765
705 790
706 716
706 717
706 726
706 728
706 729
706 761
706 768
706 770
706 771
706 787
706 794
707 708
707 715
707 718
707 721
707 724
707 729
707 735
707 739
707 744
707 755
707 757
707 758
707 781
707 1711
708 719
708 730
708 745
708 751
708 757
708 760
708 763
708 1683
709 729
709 740
709 744
709 745
709 751
709 752
709 753
709 754
709 759
709 771
709 776
709 784
709 787
709 795
709 3112
709 4557
710 712
710 719
710 725
710 726
710 727
710 733
710 746
710 750
710 751
710 764
710 777
710 2338
711 713
711 743
711 748
711 763
711 796
712 715
712 733
712 734
712 740
712 749
712 753
712 754
712 762
712 769
712 786
713 723
713 727
713 741
713 755
713 763
713 767
713 790
713 795
713 3071
714 718
714 720
714 727
714 728
714 731
714 733
714 738
714 745
714 751
714 762
714 770
714 789
715 739
715 753
715 757
715 770
715 780
716 727
716 735
716 760
716 765
716 770
716 779
716 791
716 794
716 795
716 797
716 799
717 722
717 735
717 747
717 758
717 761
717 762
717 764
717 769
718 723
718 728
718 764
718 765
718 767
718 770
718 793
718 799
719 736
719 747
719 761
719 772
719 775
719 787
719 791
720 722
720 739
720 788
721 734
721 752
721 754
721 760
721 763
721 770
721 782
721 786
721 788
721 793
721 799
721 1650
722 742
722 745
722 754
722 760
722 763
722 783
722 788
722 799
722 1465
723 738
723 746
723 756
723 759
723 770
723 773
723 796
723 1342
724 747
724 757
724 767
724 770
724 785
724 787
725 728
725 744
725 748
725 750
725 773
725 774
725 795
726 731
726 740
726 743
726 758
726 782
726 795
726 4189
727 732
727 738
727 746
727 751
727 752
727 753
727 766
727 791
728 745
728 766
728 778
728 780
728 798
729 734
729 739
729 751
729 755
729 770
729 773
729 795
729 796
730 733
730 739
730 741
730 752
730 754
730 759
730 791
730 4560
731 741
731 742
731 744
731 746
731 755
731 766
731 769
731 785
731 794
732 743
732 745
732 746
732 748
732 756
732 762
732 778
732 787
732 791
732 796
732 4964
733 747
733 752
733 756
733 759
734 750
734 776
735 736
735 740
735 743
735 760
735 770
735 983
735 2508
735 4347
736 743
736 746
736 750
736 788
736 3987
737 739
737 740
737 758
737 766
737 774
737 788
737 1140
738 740
738 750
738 759
738 764
738 775
738 778
739 750
739 754
739 757
739 759
739 760
739 763
739 765
739 767
739 787
739 1264
739 3031
739 3794
739 4707
740 743
740 744
740 745
740 749
740 751
740 753
740 774
741 754
741 761
741 764
741 766
741 767
741 770
741 773
741 790
742 745
742 751
742 755
742 759
742 772
742 773
742 783
742 790
743 774
743 792
743 799
744 749
744 773
744 777
744 779
744 787
744 795
745 758
745 764
745 767
745 768
745 769
745 786
745 911
745 2375
746 772
746 795
746 4609
747 755
747 764
747 778
747 793
747 2773
748 775
748 778
748 782
748 784
748 788
748 797
748 799
749 764
749 769
749 776
749 779
749 796
749 3159
750 763
750 767
750 774
750 775
750 780
750 797
751 768
751 779
751 787
751 793
752 762
752 773
752 775
752 780
752 785
752 1292
753 761
753 765
753 769
753 771
753 778
753 790
754 757
754 790
755 758
755 763
755 767
755 776
755 781
755 795
756 765
756 766
756 777
756 778
756 789
756 796
757 772
757 793
757 799
758 765
758 768
758 769
758 772
758 788
759 761
759 778
759 782
759 788
760 773
760 776
760 785
760 789
760 791
760 3134
760 3741
761 780
761 782
761 784
762 790
762 792
762 797
763 782
764 767
764 772
764 787
764 790
765 767
765 774
765 777
765 780
765 792
765 796
765 4271
766 768
766 770
766 795
767 799
768 785
769 773
770 780
770 798
771 776
771 780
771 786
771 890
771 1300
772 776
772 777
773 795
773 1460
774 794
774 799
775 796
775 3627
776 793
776 3155
777 781
777 782
777 787
777 795
777 4576
779 780
779 784
779 790
779 799
780 781
780 782
781 782
781 785
782 795
783 799
784 799
785 788
786 794
786 3016
788 790
788 793
789 790
790 793
790 796
795 797
796 797
796 2694
798 2915
798 4407
800 812
800 826
800 831
800 851
800 857
800 879
800 880
800 4104
801 803
801 808
801 826
801 829
801 835
801 838
801 843
801 846
801 852
801 861
801 867
801 875
801 887
801 891
801 1625
801 4795
802 814
802 816
802 829
802 839
802 845
802 850
802 852
802 863
802 866
802 869
802 876
802 877
802 899
803 804
803 806
803 811
803 843
803 852
803 872
803 874
803 881
803 883
803 891
804 807
804 819
804 821
804 832
804 839
804 843
804 845
804 851
804 853
804 863
804 869
804 887
804 893
804 898
804 1657
805 811
805 865
805 875
805 876
805 880
805 889
805 890
805 892
805 895
805 898
805 1145
806 824
806 829
806 840
806 853
806 855
806 859
806 866
806 867
806 871
806 873
806 885
806 897
806 1812
806 4351
807 811
807 823
807 832
807 883
807 899
808 809
808 820
808 844
808 849
808 868
808 876
808 881
809 816
809 824
809 829
809 834
809 861
809 868
809 876
809 878
810 821
810 835
810 856
810 863
810 881
810 891
810 893
811 815
811 827
811 828
811 860
811 866
811 884
811 886
811 893
811 895
812 818
812 819
812 824
812 842
812 845
812 847
812 869
812 895
812 899
813 822
813 851
813 866
813 899
814 824
814 827
814 829
814 835
814 839
814 847
814 848
814 849
814 863
814 865
814 882
814 892
815 821
815 828
815 844
815 854
815 859
815 874
815 876
815 891
816 828
816 830
816 842
816 870
816 886
816 892
816 898
816 1629
817 825
817 831
817 833
817 836
817 855
817 879
817 886
817 888
817 893
817 898
817 899
818 826
818 828
818 829
818 832
818 851
818 853
818 870
818 872
818 898
818 2294
819 826
819 831
819 838
819 861
819 864
819 867
819 875
819 880
819 881
819 887
819 4518
820 826
820 835
820 844
820 852
820 853
820 855
820 864
820 869
820 873
820 888
820 898
821 841
821 845
821 862
821 874
821 879
821 889
821 894
821 1732
821 2935
821 4360
822 824
822 827
822 855
822 862
822 876
822 879
822 898
823 828
823 846
823 848
823 849
823 851
823 860
823 869
823 880
823 897
824 839
824 848
824 857
824 865
824 868
824 872
824 884
824 888
824 1160
825 831
825 856
825 870
825 875
825 887
825 888
825 891
825 896
825 898
826 827
826 830
826 867
826 869
827 828
827 830
827 836
827 837
827 855
827 876
827 888
827 890
828 833
828 858
828 893
829 841
829 845
829 857
829 872
829 877
829 881
830 851
830 855
830 862
830 871
831 836
831 849
831 853
831 867
831 874
831 878
831 893
832 849
832 866
832 867
832 868
832 874
832 898
832 1493
833 835
833 841
833 843
833 877
833 882
833 889
833 3334
834 835
834 856
834 865
834 868
834 872
834 879
834 883
834 888
834 889
835 841
835 844
835 854
835 863
835 866
835 883
835 892
836 869
836 876
836 879
836 883
837 840
837 844
837 850
837 851
837 852
837 859
837 872
837 874
837 876
837 888
837 2022
838 860
838 863
839 843
839 844
839 850
839 854
839 860
839 862
839 866
839 870
839 872
839 873
839 877
840 853
840 855
840 860
840 870
840 874
840 876
840 886
840 888
840 894
840 1053
841 852
841 853
841 863
841 864
841 889
841 891
841 896
841 1540
842 864
842 869
842 882
842 894
843 873
843 887
843 891
843 894
844 848
844 881
844 883
844 884
844 889
844 899
844 2123
845 854
845 866
845 890
845 895
846 852
846 866
846 874
846 4625
847 853
847 875
848 863
848 864
848 881
848 885
848 4774
849 2601
849 3456
850 857
850 862
850 871
850 875
850 878
850 890
850 4992
851 856
851 871
851 883
851 895
851 2170
851 2876
852 854
852 866
852 874
852 884
852 885
852 2196
852 2847
853 856
853 858
853 879
853 882
853 883
853 897
854 865
854 875
854 880
854 886
855 866
855 869
855 871
855 897
856 878
856 880
856 897
857 871
857 873
857 879
857 899
857 3405
858 867
858 868
858 874
858 898
859 885
860 894
860 1371
861 894
862 880
862 887
863 883
863 887
864 865
864 876
864 878
865 869
865 880
865 885
865 888
865 893
865 898
866 890
866 892
866 898
866 1805
867 875
868 877
868 880
868 888
868 4845
869 891
870 880
870 897
870 4634
871 874
871 885
871 887
871 892
871 895
872 885
872 4408
873 891
874 885
874 895
875 883
875 888
875 2305
876 880
877 881
877 888
877 891
877 3260
878 879
878 889
878 893
878 1969
879 888
879 899
879 4910
880 882
880 885
880 893
881 893
881 894
882 894
882 2870
883 890
884 885
884 891
885 897
886 887
886 889
886 892
886 895
886 1865
887 888
887 889
887 895
887 899
888 897
889 892
889 895
889 3987
892 896
893 898
893 1938
894 3211
897 898
900 903
900 907
900 909
900 936
900 941
900 958
900 961
900 967
900 982
900 990
900 995
901 904
901 905
901 913
901 923
901 928
901 929
901 931
901 956
901 960
901 975
901 989
901 997
902 913
902 919
902 922
902 924
902 938
902 942
902 974
902 988
902 989
902 2936
903 935
903 936
903 944
903 952
903 957
903 963
903 971
903 975
903 981
903 990
903 3780
904 907
904 908
904 921
904 924
904 927
904 930
904 938
904 939
904 944
904 945
904 959
904 975
904 980
904 985
904 986
905 937
905 979
905 991
905 999
905 2564
906 915
906 927
906 936
906 941
906 943
906 947
906 965
906 982
906 991
906 996
907 934
907 939
907 950
907 962
907 985
907 999
908 911
908 914
908 916
908 919
908 930
908 938
908 946
908 951
908 955
908 982
908 990
908 994
909 915
909 921
909 925
909 942
909 944
910 916
910 929
910 934
910 935
910 977
910 980
910 994
911 918
911 923
911 926
911 940
911 941
911 944
911 948
911 952
911 953
911 960
911 967
911 978
911 981
911 983
911 984
911 994
912 913
912 961
912 967
912 969
912 993
913 938
913 941
913 955
913 988
913 993
913 3436
914 925
914 933
914 980
914 987
914 990
914 993
915 918
915 921
915 929
915 932
915 934
915 937
915 941
915 950
915 955
915 960
915 962
915 967
915 987
915 993
915 997
916 924
916 925
916 942
916 958
916 996
916 998
916 1284
917 919
917 924
917 931
917 934
917 939
917 941
917 946
917 954
917 958
917 976
917 996
918 939
918 948
918 971
918 978
918 988
919 931
919 935
919 955
919 957
919 981
919 986
919 993
920 924
920 925
920 930
920 938
920 940
920 946
920 960
920 999
921 926
921 927
921 929
921 954
921 982
921 984
922 937
922 949
922 951
922 955
922 973
922 984
922 986
922 2363
923 935
923 944
923 954
923 962
923 963
923 965
923 980
924 941
924 951
924 962
924 967
924 976
924 977
924 981
925 926
925 933
925 936
925 946
925 998
926 939
926 944
926 955
926 961
926 978
926 988
926 998
927 929
927 932
927 933
927 942
927 957
927 960
927 967
927 975
927 992
927 999
928 934
928 939
928 941
928 943
928 959
928 964
928 965
928 967
928 968
928 969
928 985
928 991
929 932
929 934
929 939
929 953
929 963
929 968
929 977
929 984
929 985
930 946
930 953
930 955
930 965
930 985
931 932
931 938
931 963
931 965
931 978
931 990
931 996
932 933
932 934
932 937
932 938
932 949
932 952
932 967
932 969
932 974
932 980
932 992
932 998
933 946
933 954
933 960
933 973
933 975
933 978
933 996
934 952
934 963
934 965
934 967
934 971
934 977
934 991
935 941
935 952
935 968
935 979
935 980
935 981
935 994
936 940
936 953
936 955
936 966
936 968
937 956
937 958
937 960
937 969
937 970
937 983
937 995
937 996
938 956
938 960
938 967
938 971
938 983
938 984
938 997
938 4198
939 963
939 964
939 970
939 972
939 973
939 983
939 990
940 948
940 969
940 971
940 975
940 982
940 985
940 995
940 997
941 957
941 965
941 983
941 985
941 996
942 947
942 949
942 956
942 957
942 969
942 971
942 987
942 993
942 994
943 948
943 953
943 974
943 984
943 988
943 991
943 996
944 946
944 949
944 987
944 992
945 951
945 972
945 973
945 979
946 964
946 972
947 948
947 953
947 959
947 960
947 971
947 978
947 982
947 993
947 998
948 951
948 964
948 967
948 977
948 989
949 955
949 960
949 970
949 979
949 998
950 971
950 994
950 996
951 955
951 961
951 962
951 966
951 969
951 970
951 993
951 995
951 996
952 954
952 970
952 975
952 982
952 990
953 956
953 959
953 966
953 992
953 998
954 968
954 970
954 973
954 990
954 991
954 997
955 956
955 966
955 994
955 1471
955 1747
956 965
956 987
956 2957
956 4691
957 958
958 959
958 967
959 964
959 965
959 969
959 977
959 980
959 995
959 996
959 3985
960 961
960 965
960 968
960 978
960 984
960 985
960 992
961 965
961 973
962 981
962 993
962 1767
963 966
963 977
963 990
963 992
963 997
964 969
964 971
964 972
964 973
964 987
964 988
964 997
964 999
964 3656
964 4463
965 972
965 979
965 4232
966 976
966 982
967 971
967 972
968 971
968 987
968 994
968 2296
969 984
969 990
969 4089
970 991
970 992
970 993
970 997
970 998
970 3405
971 976
971 999
971 4272
972 981
972 983
972 987
972 999
973 978
974 981
974 982
974 993
974 998
974 2940
975 977
975 978
975 980
975 984
975 985
975 994
976 993
977 2408
978 996
978 997
978 1905
979 987
979 993
979 998
980 986
980 995
981 985
982 994
983 985
983 990
983 994
983 3307
983 4919
985 992
985 4369
986 989
986 991
986 996
986 4466
986 4668
987 993
987 996
987 1847
988 998
989 3877
990 4630
991 992
991 993
991 998
997 1539
998 3057
1000 1011
1000 1032
1000 1042
1000 1044
1000 1059
1000 1060
1000 1075
1000 1088
1001 1003
1001 1006
1001 1007
1001 1008
1001 1015
1001 1022
1001 1027
1001 1032
1001 1037
1001 1049
1001 1066
1001 1086
1001 1099
1002 1005
1002 1011
1002 1036
1002 1043
1002 1048
1002 1084
1002 1097
1003 1011
1003 1036
1003 1050
1003 1066
1003 1070
1003 1096
1003 3632
1004 1010
1004 1017
1004 1038
1004 1039
1004 1044
1004 1066
1004 1081
1004 1095
1004 1663
1005 1019
1005 1035
1005 1051
1005 1055
1005 1065
1005 1078
1005 1079
1005 1082
1005 1094
1006 1021
1006 1028
1006 1047
1006 1053
1006 1069
1006 1071
1006 1073
1006 1094
1006 1362
1007 1022
1007 1023
1007 1025
1007 1037
1007 1057
1007 1059
1007 1080
1007 1083
1007 1091
1007 1092
1007 1095
1007 1536
1007 1697
1008 1023
1008 1030
1008 1037
1008 1056
1008 1057
1008 1078
1008 1088
1009 1013
1009 1015
1009 1018
1009 1022
1009 1023
1009 1024
1009 1038
1009 1041
1009 1051
1009 1057
1009 1058
1009 1074
1009 1078
1009 1088
1009 1096
1009 1099
1010 1030
1010 1031
1010 1033
1010 1053
1010 1064
1010 1082
1010 1095
1011 1015
1011 1023
1011 1049
1011 1063
1011 1083
1011 1092
1011 1099
1011 1756
1012 1015
1012 1020
1012 1021
1012 1036
1012 1043
1012 1054
1012 1056
1013 1025
1013 1041
1013 1061
1013 1064
1013 1076
1014 1017
1014 1023
1014 1028
1014 1034
1014 1056
1014 1068
1014 1070
1014 1073
1014 1093
1015 1030
1015 1037
1015 1041
1015 1055
1015 1056
1015 1068
1015 1088
1016 1022
1016 1026
1016 1030
1016 1035
1016 1041
1016 1046
1016 1047
1016 1052
1016 1062
1016 1067
1016 1081
1016 1085
1016 1087
1016 1094
1017 1019
1017 1020
1017 1021
1017 1026
1017 1036
1017 1039
1017 1040
1017 1054
1017 1057
1017 1062
1017 1069
1017 1077
1017 1870
1018 1021
1018 1023
1018 1024
1018 1031
1018 1035
1018 1036
1018 1044
1018 1053
1018 1060
1018 1062
1018 1065
1018 1085
1018 1086
1019 1041
1019 1043
1019 1044
1019 1051
1019 1059
1019 1064
1019 1085
1019 1090
1019 1094
1019 3367
1020 1032
1020 1037
1020 1039
1020 1047
1020 1052
1020 1056
1020 1058
1020 1074
1020 1091
1021 1038
1021 1046
1021 1051
1021 1054
1021 1065
1021 1081
1021 1082
1021 1091
1022 1041
1022 1079
1022 1081
1022 1089
1022 1095
1023 1027
1023 1035
1023 1050
1023 1055
1023 1066
1023 1075
1023 1077
1023 1096
1024 1029
1024 1030
1024 1046
1024 1066
1024 1069
1024 1072
1024 1082
1024 1085
1024 1089
1024 1090
1025 1028
1025 1032
1025 1043
1025 1045
1025 1084
1025 1094
1026 1036
1026 1059
1026 1099
1027 1040
1027 1057
1027 1067
1027 1075
1027 1076
1027 1077
1028 1035
1028 1037
1028 1044
1028 1049
1028 1070
1028 1077
1028 1080
1029 1033
1029 1049
1029 1076
1029 1080
1029 1094
1030 1038
1030 1047
1030 1050
1030 1066
1030 1080
1030 1094
1031 1050
1031 1052
1031 1067
1031 1070
1031 1078
1031 1085
1032 1043
1032 1054
1032 1055
1032 1057
1032 1058
1032 1064
1032 1076
1032 1091
1033 1045
1033 1051
1033 1053
1033 1059
1033 1068
1033 1070
1034 1040
1034 1050
1034 1053
1034 1086
1035 1040
1035 1058
1035 1064
1035 1068
1035 1099
1035 3029
1036 1059
1036 1062
1036 1099
1037 1046
1037 1067
1037 1079
1037 1085
1038 1040
1038 1041
1038 1047
1038 1053
1038 1083
1038 1085
1038 1091
1038 3681
1039 1054
1039 1063
1039 1072
1039 1085
1039 1093
1040 1045
1040 1046
1040 1054
1040 1055
1040 1073
1040 1081
1040 1088
1040 1089
1041 1059
1041 1064
1041 1080
1041 1090
1042 1044
1042 1058
1042 1068
1042 1088
1043 1049
1043 1093
1043 3340
1044 1061
1044 1072
1044 1080
1045 1055
1045 1060
1045 1077
1045 1079
1045 1092
1046 1048
1046 1051
1046 1062
1046 1065
1046 1079
1046 1080
1047 1061
1047 1064
1047 1074
1047 1088
1047 1098
1048 1067
1048 1075
1048 1077
1048 1084
1048 1098
1048 1957
1049 1059
1049 1062
1049 1083
1049 1084
1049 1097
1050 1059
1050 1066
1050 1075
1050 3747
1051 1057
1051 1067
1051 1081
1051 1089
1052 1054
1052 1057
1052 1061
1052 1063
1052 1076
1052 2190
1053 1068
1053 1072
1053 1077
1053 1078
1053 1082
1053 1087
1053 1089
1053 1093
1053 1097
1053 1357
1054 1055
1054 1056
1054 1059
1054 1068
1054 1069
1054 1080
1054 1090
1054 4250
1055 1063
1055 1076
1055 1086
1055 1087
1056 1061
1056 1063
1056 1078
1056 1088
1056 1093
1057 1064
1057 1074
1057 1089
1057 1093
1057 2750
1057 4829
1058 1059
1058 1071
1058 1073
1058 1088
1058 2416
1059 1061
1059 1064
1059 1075
1060 1063
1060 1076
1060 1083
1061 1096
1061 1099
1062 1092
1063 1082
1064 1067
1064 1098
1065 1084
1065 4827
1066 1084
1067 1072
1067 1074
1067 1098
1067 2307
1067 4451
1068 1080
1069 1070
1069 1071
1069 1074
1069 1093
1070 1089
1070 1095
1070 3232
1071 1098
1071 1099
1072 1081
1072 1082
1072 1930
1072 2218
1072 2821
1073 1092
1073 1484
1074 1078
1074 1089
1074 1098
1074 1099
1075 1092
1075 1098
1075 1952
1076 1081
1076 1082
1076 1086
1076 1089
1076 1091
1077 1082
1077 1093
1077 1096
1077 1826
1077 4390
1078 4154
1079 1089
1079 1096
1079 1098
1079 4413
1080 1083
1080 1084
1080 3205
1082 1095
1083 1093
1084 1094
1084 3398
1085 1090
1085 1096
1087 1093
1087 1094
1087 1095
1087 1099
1087 3977
1089 1091
1089 4093
1091 1093
1091 1095
1092 1095
1092 2659
1092 4451
1093 3662
1094 1095
1094 2349
1099 3951
1100 1106
1100 1108
1100 1121
1100 1126
1100 1129
1100 1198
1101 1103
1101 1114
1101 1119
1101 1120
1101 1123
1101 1127
1101 1132
1101 1148
1101 1175
1101 1182
1101 1183
1101 1184
1101 1189
1101 1190
1102 1108
1102 1112
1102 1118
1102 1137
1102 1139
1102 1145
1102 1154
1102 1161
1102 1166
1102 1180
1102 1182
1102 1184
1102 1186
1102 1189
1102 4227
1103 1111
1103 1120
1103 1124
1103 1136
1103 1147
1103 1148
1103 1158
1103 1167
1103 1173
1103 1174
1103 1191
1103 1196
1104 1113
1104 1117
1104 1129
1104 1137
1104 1140
1104 1172
1104 1185
1104 1193
1104 1197
1105 1117
1105 1123
1105 1125
1105 1127
1105 1136
1105 1168
1105 1178
1105 1179
1105 1180
1105 1192
1105 1196
1105 1198
1105 3909
1106 1151
1106 1155
1106 1162
1106 1174
1106 1175
1106 1183
1106 1192
1106 1199
1107 1109
1107 1119
1107 1128
1107 1147
1107 1153
1107 1163
1107 1173
1107 1176
1107 1179
1107 1182
1107 1192
1107 1196
1108 1110
1108 1128
1108 1131
1108 1135
1108 1152
1108 1167
1108 1169
1108 1173
1108 1176
1108 1193
1108 1195
1109 1114
1109 1120
1109 1121
1109 1122
1109 1132
1109 1140
1109 1145
1109 1154
1109 1169
1109 1178
1109 1184
1109 1189
1109 1194
1109 1196
1110 1120
1110 1130
1110 1133
1110 1142
1110 1171
1110 1173
1110 1180
1111 1118
1111 1129
1111 1167
1111 1173
1111 1176
1111 1189
1111 1193
1112 1130
1112 1133
1112 1134
1112 1139
1112 1143
1112 1148
1112 1150
1112 1173
1112 1180
1112 1194
1112 1196
1113 1119
1113 1131
1113 1135
1113 1137
1113 1149
1113 1178
1114 1125
1114 1127
1114 1143
1114 1158
1114 1174
1114 1179
1114 1186
1114 1198
1114 1712
1115 1128
1115 1134
1115 1139
1115 1143
1115 1144
1115 1153
1115 1182
1116 1121
1116 1141
1116 1143
1116 1172
1116 1176
1116 1191
1116 1195
1117 1126
1117 1151
1117 1162
1117 1165
1117 1184
1117 1185
1117 1191
1117 1198
1117 1524
1117 2545
1118 1130
1118 1137
1118 1139
1118 1140
1118 1152
1118 1159
1118 1171
1118 1178
1118 1184
1118 1195
1119 1129
1119 1135
1119 1139
1119 1140
1119 1151
1119 1177
1119 1183
1119 2595
1119 4105
1120 1123
1120 1137
1120 1138
1120 1143
1120 1149
1120 1172
1120 1173
1120 1176
1120 1191
1120 1409
1121 1133
1121 1146
1121 1148
1121 1156
1121 1159
1121 1172
1121 1185
1121 1187
1121 1196
1121 3766
1122 1123
1122 1132
1122 1133
1122 1145
1122 1146
1122 1158
1122 1177
1123 1129
1123 1136
1123 1138
1123 1146
1123 1148
1123 1163
1123 1173
1123 1181
1123 1197
1123 2841
1124 1147
1124 1161
1124 1166
1124 1188
1124 1189
1124 1190
1124 1195
1125 1137
1125 1146
1125 1157
1125 1196
1126 1127
1126 1134
1126 1143
1126 1145
1126 1149
1126 1151
1126 1172
1126 1174
1126 1175
1127 1133
1127 1141
1127 1151
1127 1172
1127 1173
1127 1192
1127 1199
1127 2227
1128 1142
1128 1153
1128 1160
1128 1163
1128 1164
1128 1172
1128 3294
1129 1136
1129 1168
1129 1170
1129 1181
1129 1192
1129 1479
1130 1131
1130 1134
1130 1140
1130 1148
1130 1152
1130 1160
1130 1162
1130 1194
1130 1199
1131 1149
1131 1166
1131 1182
1131 1191
1131 2521
1132 1134
1132 1147
1132 1151
1132 1161
1132 1176
1132 1181
1132 1184
1133 1141
1133 1154
1133 1162
1133 1172
1133 1178
1133 1179
1133 1182
1133 1188
1133 1190
1134 1142
1134 1152
1134 1154
1134 1196
1134 1197
1134 1199
1135 1139
1135 1147
1135 1153
1135 1163
1135 1187
1135 1193
1136 1142
1136 1153
1136 1156
1136 1164
1136 1170
1136 1738
1137 1143
1137 1145
1137 1150
1137 1152
1137 1166
1137 1169
1137 1178
1137 1185
1137 1196
1138 1153
1138 1158
1138 1178
1138 3152
1139 1152
1139 1156
1139 1174
1139 1180
1139 1181
1139 1190
1139 1197
1140 1157
1140 1169
1140 1172
1140 1175
1140 1190
1140 1195
1141 1144
1141 1146
1141 1169
1141 1172
1141 1174
1141 1180
1141 1186
1141 4375
1142 1143
1142 1148
1142 1151
1142 1158
1142 1169
1142 1175
1142 1178
1142 1184
1143 1149
1143 1150
1143 1156
1143 1166
1143 1170
1143 1176
1143 1177
1143 1181
1143 1182
1143 1193
1143 1195
1143 4103
1144 1150
1144 1161
1144 1171
1144 1173
1144 1175
1144 1177
1144 1181
1144 1264
1145 1160
1145 1164
1145 1169
1145 1180
1145 1190
1146 1149
1146 1165
1146 1175
1146 1180
1146 1188
1146 1197
1147 1148
1147 1155
1147 1156
1147 1169
1147 1175
1148 1150
1148 1154
1148 1189
1148 1196
1148 1198
1149 1164
1149 1177
1149 2270
1150 1165
1150 1175
1150 1186
1150 3919
1151 1156
1151 1180
1151 1197
1151 1447
1152 1153
1152 1155
1152 1176
1153 1159
1153 1160
1153 1174
1153 3551
1154 1176
1154 1177
1154 1178
1155 1161
1155 1173
1155 1174
1155 1180
1155 1195
1156 1157
1156 1158
1156 1164
1156 1169
1157 1161
1157 1163
1157 1195
1158 1159
1158 1162
1158 1171
1158 1179
1158 1189
1158 1191
1159 1163
1159 1173
1159 1187
1159 1199
1159 4303
1159 4358
1160 1167
1160 1183
1160 1193
1161 1162
1161 1173
1161 1176
1161 1184
1161 1187
1162 1171
1162 1193
1162 1196
1162 1199
1163 1174
1163 1184
1163 1189
1163 1197
1163 1198
1163 3195
1163 3838
1164 1179
1164 1191
1164 1199
1165 1171
1165 1181
1165 1184
1165 1186
1165 1191
1166 1167
1166 1175
1166 1176
1166 1182
1166 1183
1166 1185
1166 1190
1166 1193
1166 1196
1166 1732
1167 1168
1167 1177
1167 1188
1167 1199
1167 2340
1168 1173
1168 1175
1168 1179
1168 1185
1168 1195
1169 1173
1169 1182
1169 1188
1169 1190
1170 1178
1170 1181
1170 1192
1170 3565
1171 1439
1172 1194
1172 1197
1173 1178
1173 1194
1174 1180
1174 2450
1175 1182
1175 1187
1175 1190
1175 2722
1176 1196
1177 1191
1177 1193
1177 1195
1177 1197
1178 1193
1179 1191
1179 4658
1181 2588
1182 1184
1182 3903
1183 1187
1183 1188
1183 1196
1183 1197
1184 1186
1184 1198
1185 1199
1187 1194
1187 1195
1187 1777
1188 1199
1189 1197
1190 1193
1190 1197
1191 1199
1191 2589
1195 1197
1195 3517
1198 3757
1200 1223
1200 1251
1200 1259
1200 1281
1200 1282
1201 1210
1201 1212
1201 1216
1201 1227
1201 1241
1201 1244
1201 1251
1201 1254
1201 1263
1201 1264
1201 1272
1201 1276
1201 1288
1201 1290
1201 1294
1202 1208
1202 1219
1202 1221
1202 1244
1202 1246
1202 1270
1202 1281
1202 1285
1202 1289
1202 1290
1202 1292
1202 1299
1203 1220
1203 1227
1203 1237
1203 1286
1204 1215
1204 1221
1204 1226
1204 1233
1204 1238
1204 1244
1204 1250
1204 1254
1204 1257
1204 1275
1204 1282
1205 1212
1205 1217
1205 1218
1205 1219
1205 1232
1205 1238
1205 1250
1205 1260
1205 1267
1205 1281
1205 1286
1205 1292
1206 1230
1206 1251
1206 1264
1206 1265
1206 1267
1206 1272
1206 1275
1206 1276
1206 1291
1206 1294
1207 1232
1207 1246
1207 1252
1207 1260
1207 1263
1207 1285
1207 1294
1207 1297
1208 1216
1208 1218
1208 1227
1208 1235
1208 1243
1208 1258
1208 1259
1208 1266
1208 1272
1208 1277
1208 1288
1208 1299
1209 1219
1209 1221
1209 1233
1209 1242
1209 1255
1209 1261
1209 1263
1209 1268
1209 1288
1210 1211
1210 1219
1210 1231
1210 1251
1210 1277
1210 1278
1210 1293
1210 1295
1210 1299
1210 1932
1211 1225
1211 1243
1211 1276
1211 1284
1211 1294
1211 2139
1212 1226
1212 1232
1212 1240
1212 1254
1212 1265
1212 1271
1213 1234
1213 1258
1213 1263
1213 1271
1213 1280
1213 1293
1214 1229
1214 1232
1214 1284
1215 1225
1215 1227
1215 1234
1215 1243
1215 1258
1215 1272
1215 1274
1215 1284
1215 1285
1216 1221
1216 1223
1216 1232
1216 1238
1216 1239
1216 1240
1216 1241
1216 1242
1216 1247
1216 1249
1216 1256
1216 1277
1216 1293
1216 1299
1216 3583
1217 1222
1217 1224
1217 1239
1217 1246
1217 1271
1217 1273
1217 1279
1217 1293
1218 1223
1218 1271
1218 1288
1218 1291
1219 1255
1219 1267
1219 1276
1219 1280
1219 1296
1219 1386
1220 1231
1220 1236
1220 1239
1220 1250
1220 1260
1220 1267
1220 1273
1220 1276
1220 1284
1220 1285
1220 1289
1221 1222
1221 1237
1221 1248
1221 1249
1221 1265
1221 1274
1222 1232
1222 1235
1222 1238
1222 1253
1222 1261
1223 1233
1223 1237
1223 1239
1223 1245
1223 1253
1223 1257
1223 1266
1223 1271
1223 1273
1223 1281
1223 1283
1224 1251
1224 1252
1224 1270
1224 1273
1224 1281
1224 1288
1224 1297
1225 1246
1225 1278
1225 1290
1225 1292
1225 1296
1226 1233
1226 1234
1226 1236
1226 1246
1226 1248
1226 1252
1226 1262
1226 1263
1226 1265
1226 1270
1226 1281
1226 1285
1226 1297
1227 1265
1227 1278
1227 1294
1227 1295
1227 1296
1228 1238
1228 1252
1228 1262
1228 1275
1228 1278
1228 1282
1228 1283
1228 1286
1228 3878
1229 1249
1229 1258
1229 1266
1229 1285
1229 1289
1229 1299
1230 1235
1230 1246
1230 1250
1230 1257
1230 1260
1230 1270
1230 1273
1230 1296
1231 1241
1231 1260
1231 1272
1231 1293
1231 1295
1232 1236
1232 1238
1232 1240
1232 1250
1232 1257
1232 1258
1232 1279
1232 1288
1232 1289
1233 1237
1233 1244
1233 1257
1233 1259
1233 1265
1233 1269
1233 1290
1233 1295
1234 1248
1234 1263
1234 1266
1234 1277
1234 1281
1234 1283
1234 1284
1234 1288
1235 1259
1235 1276
1235 1280
1235 1281
1236 1241
1236 1260
1236 1261
1236 1279
1236 1287
1237 1244
1237 1246
1237 1262
1237 1265
1237 1268
1237 1271
1237 1282
1237 1296
1238 1258
1238 1262
1238 1266
1238 1277
1238 1292
1239 1249
1239 1257
1239 1266
1239 1275
1239 1289
1239 1298
1239 1299
1239 3347
1240 1255
1240 1262
1240 1270
1240 1274
1240 1281
1240 1288
1240 1294
1240 1297
1240 2463
1241 1249
1241 1255
1241 1268
1242 1267
1242 1295
1243 1270
1243 1288
1244 1248
1244 1274
1244 1278
1244 1280
1244 3420
1244 4039
1245 1251
1245 1257
1245 1274
1246 1251
1246 1253
1246 1256
1246 1265
1246 1289
1246 1290
1246 1298
1247 1268
1247 1272
1247 1292
1247 1295
1247 1297
1248 1261
1248 2543
1249 1259
1249 1262
1249 1265
1249 1287
1250 1251
1250 1258
1250 1262
1250 1282
1250 1283
1250 1292
1250 1295
1251 1282
1251 1283
1251 1287
1251 1292
1251 1294
1252 1268
1252 1276
1252 1277
1252 1281
1252 1282
1252 1298
1253 1258
1253 1286
1254 1266
1254 1277
1254 1293
1254 3289
1255 1272
1255 1274
1255 1290
1255 1298
1255 2096
1255 3138
1256 1262
1256 1279
1256 1281
1256 1294
1257 1259
1257 1271
1258 1260
1258 1269
1258 1282
1258 1288
1258 1292
1259 1262
1259 1275
1259 1279
1259 1288
1259 4527
1260 1271
1260 1286
1260 1287
1260 1293
1260 2214
1261 1280
1261 1290
1261 1811
1261 4380
1262 1264
1262 1272
1262 1276
1262 1281
1262 1282
1262 1290
1262 1291
1262 4408
1263 1266
1263 1270
1263 1275
1263 1277
1263 1296
1264 1273
1264 1294
1264 1299
1265 1268
1265 1282
1265 1283
1265 1289
1265 1293
1266 1283
1266 1284
1266 1289
1266 1290
1266 1295
1266 1298
1266 4142
1267 1271
1267 1281
1268 1287
1268 1290
1268 1495
1269 1278
1269 1281
1269 1286
1269 1289
1269 1297
1270 1277
1270 1279
1270 1287
1270 1298
1271 1283
1271 1286
1272 1294
1272 1295
1272 1297
1272 1298
1273 1277
1273 1278
1273 1282
1273 1285
1273 1287
1274 1279
1274 1292
1274 1297
1275 1276
1275 1283
1275 1284
1275 1290
1276 1284
1276 1286
1276 1297
1277 1279
1278 1285
1278 1286
1278 1288
1279 2112
1279 4599
1280 1292
1280 1295
1281 1282
1281 1283
1281 1293
1281 1295
1281 1298
1282 1294
1282 2400
1283 1284
1284 1287
1284 1290
1284 2205
1284 3260
1285 1296
1285 1299
1287 1291
1290 1295
1291 1299
1292 1416
1293 1299
1293 2057
1295 4532
1296 1297
1298 1999
1300 1304
1300 1309
1300 1311
1300 1322
1300 1328
1300 1359
1300 1362
1300 1367
1300 1369
1300 1372
1300 1382
1300 1388
1300 4786
1301 1320
1301 1330
1301 1344
1301 1346
1301 1358
1301 1365
1301 1376
1301 1378
1301 1380
1301 1396
1302 1330
1302 1334
1302 1339
1302 1353
1302 1358
1302 1375
1302 1381
1302 1382
1302 1392
1302 1399
1302 2928
1303 1307
1303 1316
1303 1325
1303 1333
1303 1341
1303 1346
1303 1348
1303 1365
1303 1366
1303 1381
1303 1386
1304 1308
1304 1320
1304 1336
1304 1340
1304 1349
1304 1378
1304 1382
1304 1383
1304 1393
1305 1316
1305 1327
1305 1350
1305 1356
1305 1373
1306 1307
1306 1309
1306 1321
1306 1322
1306 1326
1306 1333
1306 1341
1306 1344
1306 1348
1306 1351
1306 1356
1306 1367
1306 1370
1306 1377
1306 1378
1306 1392
1307 1309
1307 1325
1307 1335
1307 1336
1307 1339
1307 1344
1307 1355
1307 1367
1307 1382
1307 1384
1307 1386
1307 1388
1307 1392
1307 1394
1308 1324
1308 1327
1308 1342
1308 1353
1308 1358
1308 1368
1308 1395
1309 1332
1309 1335
1309 1343
1309 1349
1309 1361
1309 1367
1309 1375
1309 1379
1310 1328
1310 1341
1310 1355
1310 1359
1310 1363
1310 1377
1310 1386
1310 1387
1310 1388
1310 1391
1310 2951
1311 1319
1311 1325
1311 1332
1311 1338
1311 1340
1311 1355
1311 1362
1311 1366
1311 1367
1311 1388
1311 1389
1312 1329
1312 1334
1312 1339
1312 1352
1312 1353
1312 1355
1312 1357
1312 1370
1312 1396
1312 2339
1313 1317
1313 1338
1313 1360
1313 1362
1313 1367
1313 1368
1313 1393
1314 1319
1314 1320
1314 1333
1314 1346
1314 1374
1314 1385
1315 1317
1315 1339
1315 1342
1315 1350
1315 1362
1315 1364
1315 1367
1315 1370
1315 1382
1315 1385
1315 2810
1315 3447
1316 1320
1316 1322
1316 1333
1316 1340
1316 1344
1316 1349
1316 1363
1316 1388
1316 1389
1316 2223
1317 1329
1317 1332
1317 1339
1317 1351
1317 1352
1317 1354
1317 1356
1317 1367
1317 1392
1318 1320
1318 1323
1318 1324
1318 1325
1318 1338
1318 1345
1318 1369
1318 1370
1318 1375
1318 4724
1319 1327
1319 1333
1319 1344
1319 1346
1319 1350
1319 1359
1319 1361
1319 1365
1319 1366
1319 1384
1319 1397
1320 1329
1320 1351
1320 1370
1320 1374
1320 1379
1320 3609
1321 1330
1321 1334
1321 1338
1321 1347
1321 1359
1321 1364
1321 1373
1321 1378
1322 1336
1322 1343
1322 1369
1322 1370
1322 1373
1322 1379
1322 1383
1322 1387
1322 1389
1323 1353
1323 1384
1323 1398
1323 2723
1324 1333
1324 1343
1324 1344
1324 1367
1324 1381
1324 1384
1324 1390
1324 1395
1324 2319
1325 1328
1325 1331
1325 1346
1325 1348
1325 1364
1325 1381
1325 1389
1325 1394
1325 1399
1325 1902
1325 2197
1326 1327
1326 1332
1326 1335
1326 1360
1326 1384
1326 1392
1327 1343
1327 1352
1327 1362
1327 1375
1327 1382
1327 1391
1328 1335
1328 1356
1328 1362
1328 1369
1328 1390
1328 4622
1329 1336
1329 1351
1329 1355
1329 1357
1329 1362
1329 1370
1329 1376
1329 1388
1329 2769
1330 1346
1330 1358
1330 1367
1330 1373
1330 1386
1331 1339
1331 1342
1331 1358
1331 1364
1331 1369
1331 1372
1331 1382
1331 1387
1331 1388
1331 1398
1332 1336
1332 1347
1332 1355
1332 1360
1332 1371
1333 1337
1333 1346
1333 1348
1333 1350
1333 1359
1333 1363
1333 1369
1333 1373
1333 1374
1333 1387
1333 1395
1334 1337
1334 1338
1334 1343
1334 1376
1334 1388
1334 1395
1335 1357
1335 1359
1335 1368
1335 1372
1335 1380
1335 1381
1335 1382
1335 1389
1336 1342
1336 1354
1336 1365
1336 1379
1336 1380
1336 1382
1336 1387
1336 1394
1337 1340
1337 1352
1337 1354
1337 1356
1337 1360
1337 1361
1337 1374
1337 1375
1337 1385
1337 1391
1337 4170
1338 1350
1338 1353
1338 1360
1338 1368
1338 1372
1338 1392
1339 1357
1339 1358
1339 1367
1339 1376
1339 1379
1339 1387
1339 1388
1340 1347
1340 1349
1340 1350
1340 1366
1340 1384
1340 1396
1341 1345
1341 1349
1341 1365
1341 1366
1341 1369
1341 1371
1341 1384
1341 1394
1341 2636
1342 1349
1342 1360
1342 1371
1342 1398
1343 1344
1343 1347
1343 1350
1343 1357
1343 1361
1343 1370
1343 1378
1343 1382
1343 1391
1344 1381
1345 1358
1345 1384
1345 1392
1346 1348
1346 1352
1346 1358
1346 1363
1346 1382
1346 1394
1346 1399
1346 4991
1347 1349
1347 1378
1347 1390
1347 3128
1348 1356
1348 1364
1348 1383
1348 1385
1348 1390
1348 4952
1349 1358
1349 1397
1350 1352
1350 1361
1350 1366
1350 1371
1350 1375
1350 1392
1350 1397
1351 1363
1351 1389
1351 2231
1352 1354
1352 1355
1352 1361
1352 1364
1352 1371
1352 1380
1352 1390
1353 1354
1353 1357
1353 1359
1353 1367
1353 1374
1353 1387
1353 1398
1353 1399
1354 1357
1354 1369
1354 1375
1354 1384
1354 1396
1355 1364
1355 1371
1355 1375
1355 1383
1355 1390
1355 1391
1356 1394
1357 1372
1357 1386
1357 1391
1357 1394
1358 1362
1358 1386
1358 1391
1358 1395
1359 1362
1359 1371
1359 1388
1359 1398
1359 3683
1360 1361
1360 1366
1360 1379
1360 1392
1360 1396
1360 1399
1361 1370
1361 1392
1362 1375
1363 1384
1363 1389
1363 2566
1363 4763
1364 1384
1364 1395
1365 1377
1365 1381
1365 1383
1365 1390
1365 1391
1365 1392
1366 1388
1367 1374
1367 1375
1367 1384
1367 1385
1368 1377
1368 1395
1369 1371
1369 1382
1369 1385
1369 1386
1370 1373
1370 1387
1370 1388
1371 1393
1372 1379
1372 1385
1372 1388
1372 2712
1373 1376
1373 1387
1374 1376
1374 1394
1374 1398
1374 4296
1375 1377
1375 1380
1375 1383
1375 1384
1375 1398
1376 1388
1376 1390
1376 2783
1376 3589
1377 1384
1377 1393
1377 1397
1377 1399
1378 1396
1378 2967
1380 1389
1380 1396
1381 1388
1381 1398
1381 3945
1382 1388
1382 1389
1384 1393
1385 1389
1385 1688
1385 1838
1385 4055
1386 4279
1387 1394
1388 1389
1389 1391
1390 1393
1390 1394
1390 2490
1392 1394
1392 1399
1392 2449
1393 1398
1395 1397
1400 1418
1400 1433
1400 1440
1400 1469
1400 3492
1401 1421
1401 1434
1401 1466
1401 1483
1401 1491
1401 1497
1401 1498
1402 1406
1402 1411
1402 1430
1402 1437
1402 1451
1402 1458
1402 1464
1402 1465
1402 1484
1403 1405
1403 1408
1403 1410
1403 1420
1403 1430
1403 1432
1403 1446
1403 1448
1403 1453
1403 1458
1403 1480
1403 1483
1403 1485
1403 1498
1404 1426
1404 1441
1404 1460
1404 1472
1404 1475
1404 1477
1405 1411
1405 1426
1405 1427
1405 1430
1405 1433
1405 1434
1405 1469
1405 1494
1405 1495
1405 1496
1405 3299
1405 3509
1405 4231
1406 1407
1406 1409
1406 1416
1406 1431
1406 1443
1406 1494
1407 1441
1407 1447
1407 1454
1407 1458
1407 1475
1407 1478
1407 1488
1407 1492
1407 1493
1408 1410
1408 1418
1408 1420
1408 1433
1408 1446
1408 1451
1408 1452
1408 1459
1408 1463
1408 1464
1408 1466
1408 1496
1409 1414
1409 1418
1409 1423
1409 1424
1409 1432
1409 1441
1409 1463
1409 1468
1409 1472
1409 1475
1409 1482
1409 1494
1410 1414
1410 1420
1410 1447
1410 1452
1410 1454
1410 1461
1410 1486
1410 1487
1411 1437
1411 1443
1411 1457
1411 1465
1411 1471
1411 1486
1412 1418
1412 1435
1412 1442
1412 1462
1412 1467
1412 1478
1412 1493
1412 1495
1413 1416
1413 1425
1413 1427
1413 1430
1413 1443
1413 1477
1413 1480
1413 1492
1413 1493
1414 1419
1414 1427
1414 1432
1414 1445
1414 1448
1414 1457
1414 1473
1415 1417
1415 1428
1415 1439
1415 1442
1416 1441
1416 1442
1416 1444
1416 1457
1416 1465
1416 1471
1416 1732
1417 1420
1417 1423
1417 1448
1417 1449
1417 1451
1417 1454
1417 1491
1417 1498
1418 1425
1418 1451
1418 1454
1418 1456
1418 1471
1418 1481
1419 1438
1419 1453
1419 1472
1419 1473
1419 1484
1419 1492
1419 1494
1419 2869
1420 1421
1420 1426
1420 1427
1420 1439
1420 1473
1420 1476
1420 1486
1420 1496
1420 2422
1421 1427
1421 1441
1421 1444
1421 1447
1421 1454
1421 1457
1421 1458
1421 1481
1421 1486
1421 1498
1422 1442
1422 1469
1422 1470
1422 1483
1422 1491
1422 1494
1422 1496
1423 1472
1423 1476
1423 1480
1423 1499
1424 1433
1424 1434
1424 1444
1424 1447
1424 1451
1424 1454
1424 1471
1424 1481
1424 1483
1424 1484
1424 1538
1425 1439
1425 1447
1425 1455
1425 1464
1425 1471
1425 1473
1425 1489
1425 1490
1426 1435
1426 1439
1426 1443
1426 1451
1426 1458
1426 1477
1426 1479
1426 1493
1426 1497
1427 1433
1427 1437
1427 1438
1427 1446
1427 1452
1427 1491
1427 1492
1428 1433
1428 1442
1428 1445
1428 1455
1428 1473
1428 1493
1428 1498
1428 3334
1429 1440
1429 1474
1429 1492
1430 1435
1430 1438
1430 1442
1430 1450
1430 1456
1430 1463
1430 1466
1430 1481
1430 1498
1431 1447
1431 1452
1431 1459
1431 1475
1431 1489
1431 1495
1432 1435
1432 1446
1432 1453
1432 1491
1432 1493
1432 1496
1433 1446
1433 1476
1433 1488
1433 1489
1433 1494
1434 1446
1434 1447
1434 1448
1434 1473
1434 1482
1434 1490
1434 3702
1435 1446
1435 1449
1435 1457
1435 1475
1435 1477
1435 1480
1435 1483
1435 1484
1435 1499
1436 1441
1436 1445
1436 1451
1436 1456
1436 1458
1436 1460
1436 1462
1436 1473
1436 1475
1436 1486
1436 1498
1437 1441
1437 1447
1437 1449
1437 1454
1437 1455
1437 1460
1437 1464
1437 1469
1437 1478
1437 1480
1437 1485
1438 1439
1438 1448
1438 1460
1438 1465
1438 1486
1438 1496
1439 1443
1439 1454
1439 1466
1439 1467
1439 1485
1439 1489
1439 1492
1439 1497
1440 1464
1440 1469
1440 1485
1440 1487
1440 1492
1441 1443
1441 1453
1441 1459
1441 1468
1441 1481
1441 1497
1442 1443
1442 1445
1442 1446
1442 1455
1442 1456
1442 1470
1442 1474
1442 1481
1442 1496
1443 1451
1443 1453
1443 1458
1443 1468
1443 1473
1443 1483
1443 1491
1444 1452
1444 1460
1444 1469
1444 1471
1444 1482
1444 1483
1445 1457
1445 1460
1445 1466
1445 1467
1445 1472
1445 1477
1445 1482
1445 1493
1445 1494
1445 1498
1446 1449
1446 1451
1446 1452
1446 1455
1446 1487
1446 1495
1446 1497
1446 1499
1446 4852
1447 1453
1447 1458
1447 1496
1448 1459
1448 1467
1448 1471
1448 1472
1448 1476
1448 1489
1448 1496
1449 1466
1449 1487
1449 3298
1450 1468
1450 1475
1450 1487
1450 1494
1450 1496
1450 2398
1451 1459
1451 1460
1451 1464
1451 1465
1451 1468
1451 1477
1451 1488
1451 1493
1451 1499
1452 1453
1452 1467
1452 1489
1452 1495
1452 1498
1452 4592
1453 2898
1454 1470
1454 1484
1454 1494
1454 1499
1455 1462
1455 1464
1455 1466
1455 1467
1455 1474
1455 1476
1455 1483
1455 1490
1455 1491
1455 1495
1456 1462
1456 1466
1456 1476
1456 1493
1456 3355
1457 1462
1457 1487
1457 1492
1458 1483
1458 1489
1458 1496
1459 1472
1459 1475
1459 1478
1459 1496
1459 1498
1460 1475
1460 1481
1460 1486
1460 1490
1460 1492
1460 2456
1461 1465
1461 1468
1461 1475
1461 1479
1461 1493
1461 1494
1461 1869
1461 4843
1462 1498
1463 1464
1463 1465
1463 1472
1463 1482
1463 1483
1464 1475
1464 1494
1465 1466
1465 1480
1465 1485
1465 1486
1465 1495
1466 1478
1466 1479
1466 1483
1466 1484
1466 1485
1466 1488
1466 4923
1467 1469
1467 1470
1467 1483
1468 1469
1468 1479
1468 1488
1468 1492
1469 1470
1469 1486
1469 1488
1469 1489
1469 1493
1470 1471
1470 1473
1470 1480
1470 1481
1471 1476
1471 1481
1472 1475
1472 1488
1472 1491
1474 1476
1474 1479
1474 1490
1474 1492
1474 1493
1476 1494
1477 1479
1477 1480
1477 1484
1478 1481
1478 1484
1478 1496
1479 1631
1479 3977
1479 4598
1480 1483
1483 1496
1483 1498
1483 4524
1484 1487
1484 1491
1485 1495
1486 1491
1486 1495
1486 2300
1487 1488
1487 1498
1487 4429
1488 1491
1488 1495
1489 1496
1490 1494
1490 1497
1490 1498
1491 1495
1493 1494
1493 1496
1495 1497
1497 1498
1497 3465
1497 3809
1499 4979
1500 1514
1500 1516
1500 1519
1500 1520
1500 1552
1500 1558
1500 1581
1500 1594
1500 1622
1501 1502
1501 1519
1501 1524
1501 1526
1501 1545
1501 1562
1501 1563
1501 1565
1501 1574
1501 1575
1501 1582
1501 3370
1502 1535
1502 1549
1502 1552
1502 1554
1502 1557
1502 1572
1502 1575
1502 1583
1502 1593
1502 2222
1503 1525
1503 1526
1503 1529
1503 1536
1503 1538
1503 1540
1503 1544
1503 1559
1503 1565
1503 1570
1503 1592
1503 1593
1503 1596
1503 4059
1504 1525
1504 1541
1504 1547
1504 1554
1504 1557
1504 1564
1504 1565
1504 1577
1504 1578
1504 1586
1505 1507
1505 1510
1505 1512
1505 1514
1505 1527
1505 1539
1505 1540
1505 1543
1505 1545
1505 1551
1505 1554
1505 1562
1505 1567
1505 1577
1505 1598
1506 1515
1506 1528
1506 1538
1506 1543
1506 1546
1506 1560
1506 1562
1506 1563
1506 1566
1507 1517
1507 1518
1507 1528
1507 1535
1507 1559
1507 1562
1507 1581
1507 1583
1507 1591
1508 1509
1508 1517
1508 1520
1508 1522
1508 1529
1508 1537
1508 1543
1508 1556
1508 1565
1508 1578
1508 1594
1508 1597
1509 1510
1509 1515
1509 1521
1509 1523
1509 1537
1509 1541
1509 1550
1509 1562
1509 1582
1509 1593
1510 1517
1510 1536
1510 1539
1510 1543
1510 1547
1510 1560
1510 1561
1510 1562
1510 1563
1510 1571
1510 1573
1511 1519
1511 1522
1511 1531
1511 1560
1511 1568
1512 1533
1512 1536
1512 1548
1512 1562
1512 1564
1512 1594
1512 2282
1512 2386
1513 1514
1513 1525
1513 1531
1513 1532
1513 1545
1513 1552
1513 1571
1513 1596
1513 3967
1513 4480
1514 1526
1514 1530
1514 1532
1514 1555
1514 1557
1514 1569
1514 1570
1514 1571
1514 1576
1515 1517
1515 1522
1515 1535
1515 1536
1515 1547
1515 1563
1515 1569
1515 1582
1515 1584
1515 1589
1515 4142
1516 1522
1516 1530
1516 1551
1516 1554
1516 1558
1516 1571
1516 1599
1516 4873
1517 1519
1517 1544
1517 1558
1517 1562
1517 1564
1517 1566
1517 1575
1517 1577
1517 1593
1518 1537
1518 1549
1518 1553
1518 1559
1518 1581
1518 1588
1519 1520
1519 1524
1519 1530
1519 1537
1519 1559
1519 1561
1519 1584
1519 1587
1519 1595
1519 1597
1519 3184
1519 3942
1520 1544
1520 1552
1520 1554
1520 1592
1520 1594
1521 1553
1521 1559
1521 1561
1521 1573
1521 1576
1521 1586
1521 1587
1521 1591
1521 1599
1522 1523
1522 1534
1522 1537
1522 1541
1522 1551
1522 1552
1522 1561
1522 1578
1522 4429
1522 4504
1523 1538
1523 1551
1523 1560
1523 1575
1523 1576
1523 1585
1523 1592
1523 1593
1523 2655
1524 1530
1524 1531
1524 1534
1524 1539
1524 1541
1524 1546
1524 1550
1524 1554
1524 1587
1525 1552
1525 1565
1525 1568
1525 1570
1525 1577
1525 1592
1525 1595
1525 1893
1526 1557
1526 1565
1526 1570
1527 1531
1527 1537
1527 1546
1527 1552
1527 1558
1527 1589
1527 1592
1528 1534
1528 1535
1528 1536
1528 1538
1528 1557
1528 1561
1528 4705
1529 1547
1529 1551
1529 1568
1529 1572
1529 1582
1530 1531
1530 1534
1530 1575
1530 1584
1530 1587
1530 1593
1530 1599
1531 1537
1531 1580
1531 1586
1531 1589
1531 1596
1532 1539
1532 1550
1532 1558
1532 1562
1532 1564
1532 1567
1532 1568
1532 1584
1532 1595
1532 1598
1533 1534
1533 1544
1533 1556
1533 1567
1533 1572
1533 1578
1533 1593
1533 1598
1534 1537
1534 1553
1534 1554
1534 1561
1534 1580
1534 1591
1534 1592
1534 1596
1534 2691
1535 1576
1536 1537
1536 1540
1536 1547
1536 1548
1536 1557
1536 1570
1536 1579
1536 1582
1536 1587
1536 1592
1536 1599
1537 1542
1537 1546
1537 1568
1537 1584
1537 1590
1537 4484
1538 1549
1538 1564
1538 1567
1538 1572
1538 1577
1538 1583
1538 1598
1538 1599
1539 1546
1539 1547
1539 1569
1539 1583
1539 1584
1539 1586
1539 3058
1539 3119
1540 1546
1540 1576
1540 1581
1540 1595
1540 1599
1540 2083
1541 1546
1541 1547
1541 1558
1541 1583
1541 1591
1541 1598
1541 2173
1541 2596
1542 1548
1542 1571
1542 1572
1542 1575
1542 1585
1542 1598
1543 1551
1543 1567
1543 1569
1543 1573
1543 1579
1543 1587
1543 1593
1543 1594
1543 2335
1544 1565
1544 1576
1544 1578
1544 3397
1545 1551
1545 1560
1545 1569
1545 1571
1545 1572
1545 1573
1545 1577
1545 1579
1545 1586
1545 1589
1545 1591
1545 1596
1545 1598
1545 2189
1545 3300
1547 1556
1547 1563
1547 1569
1547 1591
1548 1554
1548 1562
1548 1567
1548 1573
1548 1575
1549 1559
1549 1572
1549 1578
1549 1579
1549 1583
1549 2519
1549 3576
1550 1560
1550 1564
1550 1574
1550 1577
1550 1584
1551 1567
1551 1578
1551 1579
1551 1586
1552 1572
1552 1573
1553 1555
1553 1559
1553 1584
1553 1586
1554 1569
1554 1576
1554 1584
1554 1586
1554 1714
1555 1558
1555 1578
1555 1598
1556 1558
1556 1559
1556 1578
1557 1558
1557 1564
1557 1571
1557 1576
1557 1583
1557 1586
1557 1592
1557 1599
1558 1588
1559 1567
1559 1576
1559 1579
1560 1568
1560 1573
1560 1575
1560 1587
1560 1593
1560 1594
1560 3396
1561 1572
1561 1577
1561 1596
1562 1573
1562 1590
1563 1571
1563 3746
1564 1577
1564 1578
1564 1595
1564 1709
1565 1569
1565 1580
1565 1583
1565 1588
1565 1598
1565 4963
1565 4973
1566 1575
1566 1584
1566 1594
1566 1970
1566 3462
1567 1573
1567 1580
1567 1591
1567 1596
1569 1573
1569 1581
1569 1582
1569 1586
1570 1578
1570 1582
1570 1584
1571 1579
1571 1585
1571 1587
1571 1590
1571 2252
1572 1578
1572 1579
1572 1582
1572 1595
1573 1584
1573 1589
1574 1585
1574 1593
1575 1592
1575 1598
1575 2649
1576 1580
1576 1590
1577 1580
1578 1579
1578 1598
1579 1585
1579 1599
1580 1587
1580 1594
1581 1586
1581 1597
1582 1589
1582 1595
1582 2290
1583 1586
1583 1593
1583 1597
1584 1590
1584 1593
1584 1597
1584 1598
1584 2953
1586 1593
1586 1594
1586 1599
1588 1956
1588 2500
1590 1686
1590 4609
1592 1594
1592 1598
1593 1998
1594 1596
1597 1598
1598 3720
1599 1720
1600 1601
1600 1614
1600 1619
1600 1627
1600 1636
1600 1642
1600 1667
1600 1669
1600 1680
1600 1690
1600 1691
1600 1696
1600 2397
1600 2890
1601 1612
1601 1625
1601 1636
1601 1683
1601 4452
1602 1610
1602 1617
1602 1641
1602 1643
1602 1646
1602 1658
1602 1667
1602 1674
1602 1683
1603 1613
1603 1621
1603 1630
1603 1632
1603 1640
1603 1654
1603 1659
1603 1660
1603 1674
1603 1675
1603 1678
1603 1693
1603 1694
1603 2919
1604 1623
1604 1630
1604 1650
1604 1658
1604 1660
1604 1669
1604 1678
1604 1682
1604 1686
1604 1694
1604 1698
1605 1614
1605 1628
1605 1630
1605 1673
1605 1683
1606 1627
1606 1632
1606 1639
1606 1649
1606 1657
1606 1669
1606 1678
1606 1684
1606 1693
1607 1637
1607 1642
1607 1655
1607 1666
1607 1679
1607 1691
1608 1619
1608 1622
1608 1645
1608 1649
1608 1689
1608 4110
1609 1612
1609 1617
1609 1625
1609 1627
1609 1629
1609 1638
1609 1643
1609 1646
1609 1665
1609 1675
1609 1687
1610 1612
1610 1644
1610 1649
1610 1654
1610 1667
1610 1668
1610 1672
1610 1680
1610 1685
1610 1686
1610 1694
1610 1697
1611 1621
1611 1622
1611 1626
1611 1646
1611 1659
1611 1662
1611 1667
1611 1670
1611 1692
1611 1695
1612 1615
1612 1617
1612 1621
1612 1632
1612 1633
1612 1658
1612 1667
1612 1669
1612 1677
1612 1684
1612 1688
1612 1691
1612 4097
1613 1627
1613 1632
1613 1633
1613 1643
1613 1645
1613 1653
1613 1659
1613 1660
1613 1662
1613 1663
1613 1675
1613 1677
1613 2379
1614 1623
1614 1624
1614 1635
1614 1636
1614 1637
1614 1666
1614 1679
1614 1681
1614 1682
1614 1691
1614 1693
1614 1695
1614 1698
1615 1621
1615 1645
1615 1651
1615 1653
1615 1659
1615 1673
1615 1678
1615 1690
1615 1698
1616 1619
1616 1622
1616 1633
1616 1670
1616 1682
1616 1695
1617 1624
1617 1627
1617 1638
1617 1643
1617 1646
1617 1649
1617 1654
1617 1671
1617 1681
1617 1682
1617 1694
1617 4124
1618 1622
1618 1624
1618 1625
1618 1638
1618 1640
1618 1641
1618 1652
1618 1686
1618 1687
1619 1625
1619 1631
1619 1675
1619 1679
1619 1687
1620 1623
1620 1640
1620 1655
1620 1661
1620 1666
1620 1676
1620 1687
1621 1636
1621 1649
1621 1658
1621 1663
1621 1668
1621 1672
1621 1682
1621 1687
1622 1637
1622 1643
1622 1654
1622 1656
1622 1665
1622 1666
1622 1682
1622 1695
1623 1629
1623 1646
1623 1664
1623 1673
1623 1675
1623 1676
1623 1681
1623 1687
1623 1689
1623 1690
1623 4514
1624 1645
1624 1646
1624 1660
1624 1669
1624 1684
1625 1628
1625 1631
1625 1661
1625 1679
1625 1692
1626 1631
1626 1636
1626 1649
1626 1651
1626 1655
1626 1670
1626 1673
1626 1676
1626 1679
1626 1692
1627 1628
1627 1644
1627 1649
1627 1651
1627 1654
1627 1665
1627 1668
1627 1670
1627 1693
1627 3820
1628 1630
1628 1631
1628 1636
1628 1639
1628 1641
1628 1657
1628 1664
1628 1670
1628 1678
1628 1681
1628 1685
1629 1637
1629 1658
1629 1683
1629 2919
1630 1649
1630 1660
1630 1685
1630 1686
1630 1690
1630 1694
1630 1697
1630 4420
1631 1633
1631 1651
1631 1658
1631 1659
1631 1660
1631 1668
1631 1670
1631 1679
1631 1684
1632 1637
1632 1649
1632 1664
1632 1683
1632 1686
1632 1694
1632 1695
1633 1648
1633 1659
1633 1662
1633 1668
1633 1669
1633 1674
1633 1676
1633 1681
1633 1683
1633 1685
1633 1692
1633 1695
1634 1660
1634 1661
1634 1665
1634 1668
1634 1672
1634 1688
1635 1641
1635 1646
1635 1647
1635 1660
1635 1672
1635 1673
1635 1678
1635 1695
1636 1642
1636 1652
1636 1661
1636 1666
1636 1675
1636 1693
1637 1638
1637 1648
1637 1650
1637 1652
1637 1682
1638 1643
1638 1646
1638 1648
1638 1659
1638 1661
1639 1666
1639 1669
1639 1670
1639 1682
1640 1642
1640 1651
1640 1652
1640 1678
1640 1682
1640 1684
1640 1697
1640 2383
1641 1651
1641 1670
1641 1676
1641 1682
1641 1685
1642 1647
1642 1666
1642 1684
1642 1686
1642 1690
1643 1673
1643 1680
1644 1646
1644 1659
1644 1661
1644 1663
1644 1666
1644 1668
1644 1680
1644 1682
1645 1649
1645 1653
1645 1659
1645 1668
1645 1677
1645 1696
1646 1650
1646 1656
1646 1660
1646 1666
1646 1672
1646 1673
1646 1687
1646 1688
1646 1692
1646 1696
1646 4884
1647 1667
1647 1673
1647 1682
1647 1687
1647 1698
1648 1665
1648 1678
1648 1690
1648 1693
1648 1697
1649 1656
1649 1663
1649 1688
1650 1661
1650 1670
1650 1672
1650 1694
1650 1697
1651 1653
1651 1691
1651 1698
1652 1656
1652 1669
1652 1671
1652 1679
1652 1683
1652 1684
1652 1685
1652 3095
1653 1656
1653 1660
1653 1667
1653 1688
1653 1689
1653 1695
1653 1697
1653 2952
1654 1656
1654 1665
1654 1676
1654 1688
1654 1689
1654 3979
1655 1657
1655 1668
1655 1684
1656 1657
1656 1659
1656 1660
1656 1662
1656 1676
1656 1679
1656 1681
1656 1699
1657 1681
1657 2679
1658 1659
1658 1691
1658 1692
1659 1665
1659 1674
1659 1690
1660 1664
1660 1667
1660 1672
1660 1674
1660 1692
1661 1662
1661 1678
1661 1680
1661 1684
1661 1685
1661 1687
1661 1697
1662 1684
1663 1664
1663 1669
1663 1686
1664 1673
1664 1674
1664 1675
1664 1678
1664 1691
1664 1694
1664 3965
1665 1682
1665 1683
1665 1688
1666 1690
1666 1693
1666 1697
1666 2682
1667 1679
1667 1686
1668 1673
1668 1677
1668 1685
1668 1814
1669 1684
1670 1680
1670 1690
1670 1692
1671 1677
1671 1679
1671 1684
1671 1693
1671 1694
1672 1673
1672 1697
1672 3620
1673 1674
1673 1684
1673 1693
1674 1683
1674 1697
1674 3547
1676 1678
1676 1684
1677 1685
1677 1691
1677 1695
1677 2349
1677 3657
1679 1682
1679 1695
1679 3769
1680 1683
1680 1689
1680 1690
1680 1697
1680 1699
1681 1694
1682 1692
1682 1696
1683 1687
1684 1690
1685 1690
1686 3819
1687 1696
1688 1692
1689 1690
1689 1699
1691 1692
1691 1696
1691 2431
1691 2623
1691 4096
1692 1695
1693 1696
1693 2797
1695 1697
1696 1698
1700 1706
1700 1710
1700 1718
1700 1728
1700 1730
1700 1740
1700 1742
1700 1743
1700 1747
1700 1751
1700 1760
1700 1768
1700 1792
1700 1793
1700 1794
1700 1796
1701 1707
1701 1723
1701 1734
1701 1744
1701 1748
1701 1749
1701 1751
1701 1753
1701 1773
1701 1776
1701 1778
1701 1780
1701 1794
1702 1710
1702 1711
1702 1721
1702 1730
1702 1744
1702 1766
1702 1773
1702 1775
1702 1777
1702 1786
1702 1790
1703 1710
1703 1721
1703 1724
1703 1742
1703 1748
1703 1749
1703 1762
1703 1763
1703 1768
1703 1775
1703 1787
1703 1792
1703 1794
1703 4207
1704 1739
1704 1752
1704 1757
1704 1758
1704 1777
1704 1791
1704 1792
1705 1707
1705 1712
1705 1715
1705 1721
1705 1726
1705 1730
1705 1732
1705 1740
1705 1760
1705 1767
1705 1772
1705 1779
1705 1799
1706 1729
1706 1732
1706 1734
1706 1737
1706 1770
1706 1776
1706 1783
1707 1714
1707 1719
1707 1720
1707 1735
1707 1760
1707 1763
1707 1764
1707 1773
1707 1783
1707 1789
1707 1794
1708 1719
1708 1722
1708 1759
1708 1770
1708 1786
1708 1791
1708 1792
1708 1794
1708 1797
1708 4001
1709 1726
1709 1754
1709 1791
1710 1726
1710 1728
1710 1745
1710 1756
1710 1759
1710 1787
1710 1796
1710 1797
1711 1718
1711 1727
1711 1740
1711 1746
1711 1750
1711 1763
1711 1766
1711 1767
1711 1769
1711 1783
1712 1715
1712 1742
1712 1748
1712 1753
1712 1754
1712 1772
1712 1784
1712 4733
1713 1742
1713 1751
1713 1760
1713 1762
1713 1767
1713 1771
1713 1774
1713 1794
1714 1718
1714 1738
1714 1739
1714 1744
1714 1764
1714 1768
1714 1779
1714 1780
1715 1717
1715 1726
1715 1742
1715 1743
1715 1775
1715 1782
1716 1723
1716 1727
1716 1735
1716 1743
1716 1749
1716 1759
1716 1763
1716 1776
1717 1723
1717 1728
1717 1729
1717 1744
1717 1746
1717 1752
1717 1773
1717 1790
1718 1725
1718 1739
1718 1741
1718 1742
1718 1750
1718 1755
1718 1759
1718 1760
1718 1782
1718 1783
1718 1786
1719 1734
1719 1735
1719 1748
1719 1755
1719 1762
1719 1772
1719 1778
1719 1781
1719 1799
1720 1728
1720 1730
1720 1744
1720 1753
1720 1779
1720 1793
1721 1723
1721 1739
1721 1746
1721 1748
1721 1756
1721 1767
1721 1771
1721 1778
1721 1779
1721 1785
1722 1725
1722 1731
1722 1737
1722 1754
1722 1757
1722 1759
1722 1760
1722 1761
1722 1767
1722 1772
1722 1783
1722 1794
1722 4392
1723 1727
1723 1734
1723 1746
1723 1768
1723 1788
1723 1790
1723 1791
1723 1798
1724 1726
1724 1736
1724 1739
1724 1741
1724 1746
1724 1757
1724 1762
1724 1769
1724 1788
1724 1793
1724 3323
1724 3772
1725 1729
1725 1734
1725 1735
1725 1736
1725 1761
1725 1769
1725 1784
1725 1785
1725 1788
1725 1789
1725 1799
1726 1747
1726 1748
1726 1751
1726 1752
1726 1758
1726 1761
1726 1774
1726 1784
1727 1731
1727 1738
1727 1751
1727 1771
1727 1774
1727 1778
1727 1788
1727 3967
1728 1729
1728 1730
1728 1741
1728 1746
1728 1765
1728 1769
1728 1770
1728 1772
1728 1776
1728 1779
1728 1797
1728 1798
1729 1730
1729 1747
1729 1753
1729 1790
1730 1731
1730 1735
1730 1736
1730 1739
1730 1741
1730 1742
1730 1746
1730 1757
1730 1777
1730 1782
1730 1788
1730 1789
1731 1743
1731 1744
1731 1758
1731 1759
1731 1768
1731 1776
1731 1777
1731 1780
1731 1787
1731 1795
1731 1798
1732 1740
1732 1744
1732 1765
1732 1778
1732 1782
1733 1736
1733 1740
1733 1742
1733 1744
1733 1747
1733 1751
1733 1752
1733 1753
1733 1762
1733 2398
1734 1736
1734 1739
1734 1743
1734 1744
1734 1753
1734 1758
1734 1788
1734 1793
1734 1797
1734 1798
1735 1754
1735 1769
1735 1772
1735 1775
1735 1781
1735 1784
1735 1797
1735 4302
1736 1737
1736 1740
1736 1741
1736 1749
1736 1758
1736 1760
1736 1763
1736 1781
1736 1784
1737 1771
1737 1775
1737 1789
1737 1792
1738 1780
1738 1784
1738 1799
1739 1743
1739 1750
1739 1760
1739 1768
1739 1770
1739 1776
1739 1779
1739 1780
1739 1790
1739 1791
1739 1795
1740 1746
1740 1748
1740 1752
1740 1772
1740 1776
1740 1791
1741 1754
1741 1760
1741 1768
1741 1774
1741 1775
1741 1778
1741 1780
1741 1791
1741 1794
1742 1754
1742 1767
1743 1760
1743 1761
1743 1776
1743 1779
1743 1784
1743 1798
1744 1758
1744 1760
1744 1776
1744 1778
1744 1797
1745 1746
1745 1749
1745 1758
1745 1780
1745 1784
1745 1794
1746 1756
1746 1761
1746 1762
1746 1766
1746 1772
1746 1779
1746 1781
1746 1787
1746 1798
1747 1757
1747 1772
1747 1783
1747 1789
1747 1795
1747 1798
1748 1749
1748 1761
1748 1764
1748 1765
1748 1773
1748 1782
1749 1752
1749 1757
1749 1760
1749 1767
1749 1772
1749 1773
1749 1789
1749 1798
1750 1767
1750 1768
1750 1776
1750 1788
1750 1791
1751 1755
1751 1767
1751 1781
1752 1781
1752 1782
1752 1783
1752 1789
1752 1792
1752 1793
1753 1763
1753 1778
1753 1794
1753 1797
1754 1755
1754 1759
1754 1772
1754 1793
1754 2021
1755 1756
1755 1765
1755 1774
1755 1779
1755 1781
1755 4745
1756 1781
1756 1785
1756 1797
1756 1799
1756 4731
1757 1760
1757 1766
1757 1792
1757 1794
1758 1766
1758 1775
1758 1791
1758 1795
1758 1799
1759 1761
1759 1774
1759 1777
1759 1779
1759 1790
1759 1796
1760 1773
1760 1787
1760 1794
1760 1799
1761 1792
1762 1767
1762 1772
1762 1789
1762 1799
1763 1766
1763 1778
1763 1780
1763 1793
1763 1797
1763 1799
1763 1945
1764 1771
1764 1778
1764 1791
1765 1769
1765 1775
1765 1781
1765 1782
1766 1770
1766 1776
1766 1783
1766 1792
1766 1799
1767 1770
1767 1771
1767 1778
1767 1788
1768 1776
1768 1778
1768 1780
1768 1784
1768 1786
1768 1788
1769 1785
1769 1793
1770 1773
1770 1778
1771 1775
1772 1773
1772 1776
1772 1780
1772 1791
1772 1797
1773 1790
1773 1794
1773 3717
1774 1776
1774 1798
1775 1778
1775 1789
1775 1792
1777 3204
1778 1788
1778 1798
1779 1790
1779 1792
1779 1795
1779 1799
1779 3126
1780 1784
1780 1785
1780 4304
1781 1784
1781 1786
1781 1789
1781 1795
1781 1796
1781 1798
1782 1924
1783 1785
1783 1793
1783 1799
1785 1792
1785 1799
1785 2045
1786 1792
1786 1797
1787 1798
1788 1794
1789 1797
1791 1792
1791 1794
1792 4786
1793 1794
1794 1798
1796 1798
1800 1816
1800 1825
1800 1827
1800 1853
1800 1863
1800 1865
1800 1875
1800 1876
1800 1893
1800 1896
1801 1807
1801 1814
1801 1817
1801 1819
1801 1826
1801 1828
1801 1838
1801 1843
1801 1844
1801 1870
1801 1872
1801 1888
1801 1893
1801 1922
1802 1805
1802 1813
1802 1823
1802 1851
1802 1881
1803 1808
1803 1816
1803 1840
1803 1846
1803 1851
1803 1853
1803 1877
1803 1882
1803 1888
1804 1806
1804 1822
1804 1833
1804 1846
1804 1858
1804 1862
1804 1872
1804 1874
1804 1878
1804 1882
1804 1885
1804 1892
1804 1893
1805 1809
1805 1820
1805 1846
1805 1858
1805 1878
1805 1886
1805 1894
1805 1898
1806 1809
1806 1812
1806 1833
1806 1854
1806 1859
1806 1867
1806 1878
1806 1893
1807 1824
1807 1830
1807 1839
1807 1842
1807 1857
1807 1875
1807 1878
1807 1883
1808 1822
1808 1833
1808 1835
1808 1838
1808 1849
1808 1854
1808 1862
1808 1868
1808 1878
1808 1888
1808 1890
1808 1897
1808 4385
1809 1819
1809 1821
1809 1830
1809 1839
1809 1843
1809 1851
1809 1871
1809 1872
1809 1880
1809 1881
1809 1887
1809 1897
1810 1816
1810 1825
1810 1829
1810 1836
1810 1842
1810 1873
1810 1880
1810 1894
1810 1897
1811 1814
1811 1824
1811 1827
1811 1846
1811 1847
1811 1850
1811 1852
1811 1853
1811 1866
1811 1888
1811 1893
1811 1898
1812 1834
1812 1863
1812 1866
1812 1870
1812 1895
1812 1897
1813 1818
1813 1831
1813 1854
1813 1861
1813 1863
1813 1866
1813 1873
1813 1877
1813 1879
1813 1882
1813 1898
1814 1815
1814 1837
1814 1839
1814 1840
1814 1853
1814 1854
1814 1855
1814 1861
1814 1868
1814 1879
1814 1884
1814 1886
1814 1893
1815 1816
1815 1824
1815 1832
1815 1833
1815 1837
1815 1843
1815 1852
1815 1855
1815 1874
1816 1828
1816 1837
1816 1845
1816 1851
1816 1858
1816 1861
1816 1867
1816 1871
1816 1878
1817 1862
1817 1878
1817 1880
1817 1888
1817 2950
1818 1820
1818 1826
1818 1829
1818 1834
1818 1854
1818 1855
1818 1873
1818 1878
1819 1832
1819 1834
1819 1840
1819 1849
1819 1850
1819 1860
1819 1883
1819 2067
1819 3983
1820 1888
1821 1823
1821 1832
1821 1867
1821 1874
1821 1884
1821 1885
1821 1891
1822 1858
1822 1861
1822 1862
1822 1871
1822 1878
1822 1883
1822 1887
1823 1842
1823 1843
1823 1864
1823 1872
1823 1885
1823 1894
1824 1838
1824 1844
1824 1852
1824 1854
1824 1860
1824 1863
1824 1869
1824 1874
1824 1897
1825 1826
1825 1841
1825 1849
1825 1860
1825 1866
1825 1869
1825 1892
1825 1898
1825 1920
1826 1827
1826 1834
1826 1837
1826 1861
1826 1863
1826 1867
1826 1888
1826 1896
1827 1828
1827 1834
1827 1846
1827 1853
1827 1856
1827 1858
1827 1873
1827 1890
1827 1892
1827 1893
1827 1894
1828 1846
1828 1855
1828 1859
1828 1866
1828 1883
1828 1885
1828 1889
1828 1897
1829 1854
1829 1855
1829 1871
1829 1873
1829 1875
1829 1876
1829 1885
1829 1888
1830 1832
1830 1839
1830 1850
1830 1853
1830 1854
1830 1856
1830 1865
1830 1872
1830 1876
1830 1881
1830 1884
1830 1888
1830 1891
1831 1836
1831 1840
1831 1841
1831 1846
1831 1852
1831 1857
1831 1865
1831 1869
1831 1871
1831 1879
1831 1882
1831 1897
1832 1839
1832 1841
1832 1843
1832 1844
1832 1882
1832 1887
1833 1836
1833 1851
1833 1861
1833 1895
1833 1899
1834 1839
1834 1854
1834 1870
1834 1877
1834 1890
1835 1839
1835 1847
1835 1849
1835 1855
1835 1868
1835 1873
1835 1885
1835 1891
1835 1892
1835 1895
1836 1838
1836 1879
1836 1880
1837 1838
1837 1840
1837 1847
1837 1854
1837 1862
1837 1879
1837 1882
1837 1886
1837 1890
1837 4189
1838 1841
1838 1846
1838 1849
1838 1863
1838 1873
1838 1882
1838 1883
1838 1895
1839 1848
1839 1856
1839 1867
1839 1878
1839 1880
1839 4126
1840 1842
1840 1854
1840 1857
1840 1866
1840 1867
1840 1872
1841 1847
1841 1849
1841 1851
1841 1864
1841 1875
1841 1880
1841 1888
1841 1893
1842 1845
1842 1852
1842 1865
1842 1881
1843 1844
1843 1848
1843 1849
1843 1868
1843 1877
1843 1887
1843 1896
1844 1845
1844 1854
1844 1879
1844 1889
1845 1852
1845 1862
1845 1865
1845 1880
1845 1899
1846 1859
1846 1863
1846 1878
1846 1881
1846 1885
1846 1888
1846 1897
1847 1848
1847 1852
1847 1853
1847 1856
1847 1862
1847 1865
1847 1874
1847 1883
1847 1888
1847 1895
1847 3603
1848 1855
1848 1856
1848 1870
1848 1882
1848 1888
1848 1895
1849 1867
1849 1871
1849 1882
1849 1896
1850 1858
1850 1868
1850 1871
1850 1888
1850 1895
1851 1855
1851 1863
1851 1880
1851 1888
1851 1895
1852 1853
1852 1875
1852 1882
1853 1884
1853 1893
1853 3256
1854 1862
1854 1865
1854 1871
1854 1873
1854 1894
1854 4492
1855 1863
1855 1870
1855 1875
1855 1885
1855 1891
1856 1861
1856 1866
1856 1880
1856 1888
1856 1893
1856 1894
1856 1897
1857 1874
1857 1879
1857 1880
1858 1869
1858 1875
1858 1879
1858 1884
1859 1863
1859 1866
1859 1867
1859 1878
1859 1884
1859 2854
1860 1869
1860 1870
1860 1875
1860 1877
1861 1864
1861 1865
1861 1870
1861 1875
1861 1877
1862 1867
1862 1882
1862 1883
1862 1898
1863 1882
1863 3616
1863 3703
1864 1868
1864 1872
1864 1884
1864 1892
1864 1895
1864 1897
1864 2303
1865 1880
1865 1890
1866 1867
1866 1892
1866 1896
1867 1873
1867 1893
1867 1896
1868 1876
1868 1877
1868 1882
1868 1883
1868 4135
1869 1883
1870 1873
1870 1877
1870 1885
1870 1886
1870 1888
1870 1892
1870 2901
1871 1887
1871 1899
1871 2392
1872 1875
1872 1881
1872 1895
1872 1899
1873 1874
1873 1898
1873 1899
1874 1875
1874 1879
1874 2056
1874 2769
1875 1882
1875 1890
1875 1895
1875 4960
1876 1881
1876 1899
1877 1894
1877 1899
1877 3345
1878 1880
1879 1893
1879 2530
1879 3561
1880 1881
1880 1888
1882 1885
1882 1889
1882 1892
1882 1898
1883 1893
1883 1895
1884 1894
1885 1888
1885 1893
1885 1894
1885 1899
1886 1890
1886 1892
1887 1894
1887 1896
1888 1897
1888 3389
1889 1892
1890 1994
1891 1893
1891 1894
1895 1896
1898 2092
1898 3874
1898 4296
1898 4928
1899 3772
1900 1915
1900 1940
1900 1944
1900 1950
1900 1958
1900 1967
1900 1968
1900 1976
1900 1977
1900 1979
1900 1995
1900 1998
1900 4575
1901 1912
1901 1913
1901 1936
1901 1937
1901 1952
1901 1998
1902 1907
1902 1936
1902 1937
1902 1957
1902 1972
1902 1985
1902 1986
1903 1905
1903 1929
1903 1972
1903 1978
1903 1979
1903 1981
1903 1989
1903 1994
1903 1999
1903 4333
1904 1928
1904 1967
1904 1968
1904 1981
1904 1993
1905 1908
1905 1911
1905 1923
1905 1925
1905 1926
1905 1938
1905 1943
1905 1953
1905 1956
1905 1965
1905 1988
1906 1916
1906 1922
1906 1925
1906 1935
1906 1940
1906 1946
1906 1948
1906 1958
1906 1965
1906 1968
1906 1981
1906 1982
1906 1994
1907 1919
1907 1925
1907 1949
1907 1951
1907 1962
1907 1974
1907 1975
1907 1978
1907 1992
1907 2686
1908 1909
1908 1913
1908 1921
1908 1925
1908 1926
1908 1928
1908 1933
1908 1937
1908 1941
1908 1953
1908 1955
1908 1966
1908 1975
1908 1979
1908 1980
1908 1982
1908 1988
1908 1998
1909 1917
1909 1928
1909 1970
1909 1978
1909 1979
1909 1995
1910 1911
1910 1914
1910 1917
1910 1918
1910 1931
1910 1932
1910 1945
1910 1946
1910 1978
1910 1982
1911 1920
1911 1931
1911 1941
1911 1943
1911 1948
1911 1964
1911 1965
1911 1977
1911 2014
1912 1933
1912 1937
1912 1942
1912 1945
1912 1953
1912 1956
1912 1957
1912 1962
1912 1968
1912 1976
1912 1978
1912 1979
1912 1990
1913 1937
1913 1940
1913 1945
1913 1947
1913 1959
1913 1963
1913 1977
1913 1979
1913 1981
1913 1984
1913 1987
1913 1990
1913 1994
1913 1997
1914 1921
1914 1927
1914 1938
1914 1947
1914 1958
1914 1968
1914 1989
1914 1992
1914 1993
1915 1920
1915 1937
1915 1969
1915 1973
1915 1974
1915 1978
1915 1985
1916 1927
1916 1961
1916 1970
1916 1971
1916 1979
1916 1996
1917 1919
1917 1925
1917 1936
1917 1944
1917 1971
1917 1972
1917 1989
1917 1991
1917 1997
1918 1925
1918 1945
1918 1952
1918 1961
1918 1962
1918 1974
1918 1983
1918 1993
1919 1929
1919 1930
1919 1935
1919 1953
1919 1963
1919 1968
1919 1969
1919 1972
1919 1989
1919 1990
1920 1942
1920 1948
1920 1958
1920 1969
1920 1970
1920 1980
1920 1986
1920 2114
1921 1930
1921 1946
1921 1957
1921 1964
1921 1968
1921 1988
1921 1993
1921 1994
1921 1999
1922 1926
1922 1927
1922 1931
1922 1960
1922 1970
1922 1981
1922 1987
1923 1927
1923 1928
1923 1942
1923 1950
1923 1959
1923 1972
1923 1978
1923 1999
1923 4996
1924 1932
1924 1942
1924 1955
1924 1963
1924 1970
1924 1980
1924 1991
1925 1927
1925 1930
1925 1937
1925 1939
1925 1950
1925 1952
1925 1978
1925 1987
1925 1990
1925 1991
1925 1999
1926 1954
1926 1961
1926 1962
1926 1968
1926 1979
1926 1993
1927 1931
1927 1941
1927 1952
1927 1966
1927 1989
1927 1996
1927 4293
1928 1931
1928 1934
1928 1943
1928 1957
1928 1960
1928 1963
1928 1964
1928 1965
1928 1983
1929 1933
1929 1956
1929 1979
1929 1986
1929 1992
1929 1995
1930 1931
1930 1935
1930 1949
1930 1952
1930 1958
1930 1962
1930 1972
1930 1990
1931 1941
1931 1953
1931 1968
1931 1975
1931 1978
1931 1985
1931 1993
1931 1995
1932 1933
1932 1936
1932 1939
1932 1953
1932 1956
1932 1977
1932 1986
1932 1990
1932 1994
1932 1998
1933 1943
1933 1945
1933 1949
1933 1957
1933 1995
1933 2667
1934 1935
1934 1946
1934 1967
1934 1990
1934 1993
1935 1940
1935 1959
1935 1960
1935 1963
1935 1976
1935 1983
1935 1996
1935 1997
1936 1950
1936 1951
1936 1954
1936 1965
1936 1969
1936 1981
1937 1939
1937 1953
1937 1974
1937 1978
1937 1995
1937 2170
1938 1940
1938 1951
1938 1974
1938 1996
1938 1999
1938 2628
1938 3903
1939 1948
1939 1949
1939 1950
1939 1959
1939 1974
1940 1946
1940 1954
1940 1955
1940 1997
1941 1951
1941 1957
1941 1961
1941 1963
1941 1971
1941 1980
1941 1998
1942 1946
1942 1947
1942 1948
1942 1952
1942 1961
1942 1964
1942 1968
1942 1976
1942 1978
1942 1984
1942 3007
1942 3854
1943 1958
1943 1982
1944 1953
1944 1959
1944 1960
1944 1978
1945 1948
1945 1982
1945 1986
1945 1991
1946 1960
1946 1963
1946 1976
1946 1979
1946 1991
1946 1997
1946 2544
1947 1958
1947 1960
1947 1993
1948 1970
1948 1976
1948 1977
1948 1980
1948 1983
1948 1984
1948 1989
1948 1997
1949 1963
1949 1975
1949 1978
1949 1979
1949 1982
1949 1995
1950 1957
1950 1991
1951 1952
1951 1962
1951 1967
1951 1969
1951 1979
1951 2343
1952 1959
1952 1960
1952 1973
1952 1976
1952 1979
1952 1993
1952 3059
1953 1966
1953 1981
1953 1982
1953 1990
1953 1991
1954 1970
1954 1978
1954 1979
1954 1988
1954 1989
1955 1956
1955 2587
1956 1957
1956 1962
1956 1976
1956 1979
1956 1992
1956 1996
1956 1998
1957 1966
1957 1967
1957 1981
1957 3254
1958 1971
1958 1994
1959 1963
1959 1972
1959 1975
1959 1982
1959 1987
1960 1975
1960 1979
1960 1991
1960 1995
1961 1970
1961 1985
1961 1986
1961 1991
1962 1967
1962 1976
1962 1996
1963 1976
1964 1974
1964 1979
1964 1983
1964 1985
1964 1995
1964 1999
1965 1966
1965 1973
1965 1979
1965 1988
1965 1999
1966 1979
1966 1991
1966 4492
1967 1974
1967 1984
1968 1973
1968 1978
1969 1972
1969 1977
1969 1991
1969 1995
1970 1980
1970 1985
1971 1980
1971 1981
1971 1984
1971 1990
1971 1998
1972 1993
1972 1994
1972 1998
1973 1997
1974 1979
1974 1999
1975 1980
1975 1986
1975 1993
1975 3192
1976 1987
1976 1998
1977 1982
1977 1985
1978 1984
1978 1995
1979 1993
1979 1997
1980 1982
1980 1987
1980 1995
1981 1994
1982 1984
1982 1989
1983 1987
1983 1996
1983 1997
1984 1985
1984 4027
1987 1988
1987 1989
1987 1995
1987 1999
1987 4725
1988 1994
1989 1991
1989 1992
1989 1993
1989 1994
1989 2375
1990 1993
1990 1997
1990 1999
1992 3504
1994 1998
1995 2243
1995 3344
1998 4295
2000 2005
2000 2019
2000 2026
2000 2035
2000 2040
2000 2048
2000 2066
2000 2069
2000 2074
2000 2096
2000 3709
2001 2010
2001 2015
2001 2019
2001 2050
2001 2053
2001 2055
2001 2058
2001 2070
2001 2073
2001 2090
2001 2096
2002 2014
2002 2021
2002 2034
2002 2038
2002 2056
2002 2071
2003 2019
2003 2044
2003 2046
2003 2047
2003 2054
2003 2055
2003 2067
2003 2080
2003 2087
2003 2091
2004 2006
2004 2013
2004 2025
2004 2031
2004 2032
2004 2036
2004 2048
2004 2054
2004 2070
2004 2081
2004 2096
2004 3895
2005 2027
2005 2034
2005 2040
2005 2041
2005 2044
2005 2051
2005 2062
2005 2082
2005 2087
2006 2011
2006 2012
2006 2018
2006 2020
2006 2023
2006 2031
2006 2040
2006 2057
2006 2064
2006 2093
2007 2008
2007 2012
2007 2020
2007 2041
2007 2047
2007 2048
2007 2071
2007 2074
2007 2097
2008 2009
2008 2010
2008 2025
2008 2027
2008 2045
2008 2058
2008 2089
2008 3133
2009 2022
2009 2050
2009 2057
2009 2069
2009 2070
2009 2083
2009 2084
2009 2094
2010 2012
2010 2013
2010 2027
2010 2037
2010 2048
2010 2057
2010 2071
2010 2076
2010 2084
2010 2086
2010 2093
2010 2096
2011 2025
2011 2028
2011 2032
2011 2039
2011 2044
2011 2047
2011 2053
2011 2058
2012 2020
2012 2022
2012 2028
2012 2037
2012 2065
2012 2077
2012 2081
2012 2095
2012 2096
2013 2017
2013 2020
2013 2030
2013 2040
2013 2041
2013 2062
2013 2072
2013 2084
2013 2085
2013 2095
2014 2043
2014 2047
2014 2054
2014 2057
2014 2065
2014 2068
2014 2073
2014 4587
2015 2032
2015 2033
2015 2043
2015 2047
2015 2050
2015 2053
2015 2057
2015 2075
2015 2082
2015 2091
2015 2096
2015 3787
2016 2017
2016 2023
2016 2024
2016 2033
2016 2036
2016 2047
2016 2053
2016 2066
2016 2094
2016 2095
2016 2099
2017 2024
2017 2028
2017 2041
2017 2051
2017 2068
2017 2076
2017 2086
2017 2087
2017 2089
2017 2092
2018 2025
2018 2029
2018 2031
2018 2034
2018 2067
2018 2090
2019 2038
2019 2083
2019 3154
2020 2021
2020 2033
2020 2056
2020 2087
2020 2088
2020 2094
2021 2023
2021 2029
2021 2039
2021 2087
2022 2038
2022 2041
2022 2048
2022 2064
2022 2069
2022 2098
2023 2026
2023 2042
2023 2078
2023 2083
2023 2090
2023 2095
2023 2096
2024 2025
2024 2031
2024 2040
2024 2042
2024 2043
2024 2048
2024 2049
2024 2069
2024 2070
2024 2075
2025 2030
2025 2035
2025 2038
2025 2047
2025 2069
2025 2071
2025 2081
2025 2084
2025 2095
2025 4737
2026 2044
2026 2057
2026 2059
2026 2060
2026 2064
2026 2084
2026 2086
2027 2030
2027 2047
2027 2062
2027 2064
2027 2073
2027 2087
2027 2094
2027 2302
2028 2029
2028 2037
2028 2049
2028 2051
2028 2055
2028 2070
2028 2071
2028 2083
2028 2091
2028 4231
2029 2045
2029 2046
2029 2051
2029 2067
2029 2068
2030 2031
2030 2033
2030 2045
2030 2047
2030 2052
2030 2083
2030 2092
2030 2097
2031 2033
2031 2035
2031 2051
2031 2061
2031 2071
2031 2072
2031 3887
2031 4149
2032 2038
2032 2047
2032 2064
2032 2075
2032 2095
2033 2047
2033 2059
2033 2065
2033 2067
2033 2068
2033 2097
2033 2099
2034 2035
2034 2045
2034 2058
2034 2077
2034 2091
2034 2093
2034 2096
2035 2058
2035 2063
2035 2069
2035 2081
2036 2041
2036 2051
2036 2054
2036 2056
2036 2065
2036 2072
2036 2080
2036 3862
2037 2049
2037 2051
2037 2056
2037 2069
2037 2071
2037 2083
2037 2085
2037 2095
2037 2096
2037 3517
2038 2052
2038 2063
2038 2067
2038 2081
2038 2085
2038 2099
2038 3725
2039 2051
2039 2062
2039 2070
2039 2072
2039 2074
2039 2091
2039 2094
2039 2096
2040 2044
2040 2052
2040 2072
2040 3189
2041 2051
2041 2065
2041 2066
2041 2077
2041 2085
2041 2099
2042 2050
2042 2052
2042 2069
2042 2072
2042 2082
2042 2095
2042 2099
2042 3928
2043 2067
2043 2083
2043 2088
2043 2089
2043 2092
2044 2063
2044 2092
2044 2093
2044 3422
2045 2055
2045 2057
2045 2058
2045 2072
2045 2076
2045 2079
2045 4782
2046 2053
2046 2055
2046 2066
2046 2075
2046 2085
2046 2088
2047 2052
2047 2064
2047 2077
2048 2061
2048 2068
2048 2076
2049 2065
2049 2066
2049 2071
2049 2074
2049 2091
2050 2051
2050 2063
2050 2074
2050 2076
2050 2079
2050 2093
2050 2098
2050 4690
2051 2056
2051 2060
2051 2066
2051 2078
2051 2082
2051 2091
2052 2062
2052 2064
2052 2069
2052 2075
2052 2081
2052 2083
2052 2085
2052 2095
2052 2816
2053 2070
2053 2072
2053 2078
2053 2084
2053 2085
2053 2088
2053 2090
2053 2097
2053 2520
2054 2075
2054 2084
2055 2057
2055 2058
2055 2061
2055 2064
2055 2066
2055 2078
2055 2096
2056 2061
2056 2066
2056 2072
2056 2082
2056 2085
2056 2091
2056 2092
2056 3420
2057 2066
2057 2077
2057 2089
2057 2093
2058 2075
2058 2076
2058 2081
2058 2084
2059 2076
2059 2084
2059 2088
2059 2512
2060 2070
2060 2074
2060 2078
2060 2088
2060 2093
2060 2098
2061 2064
2061 2075
2061 2097
2061 3772
2062 2069
2062 2078
2062 2089
2063 2081
2063 2096
2063 4216
2064 2065
2064 2072
2064 2075
2064 2086
2064 2095
2064 2096
2064 3712
2065 2079
2065 2090
2065 2092
2065 3338
2066 2068
2066 2070
2066 2095
2067 2074
2067 2090
2067 2091
2068 2070
2068 2078
2068 2085
2069 2084
2069 2085
2069 2095
2069 2097
2070 2075
2070 2079
2070 2093
2070 2098
2071 2095
2071 2096
2072 2083
2072 2097
2073 2074
2073 2079
2073 2090
2073 2095
2073 2099
2074 2096
2074 4723
2075 2080
2075 2084
2077 2084
2077 2090
2078 2084
2078 2091
2079 2084
2079 4643
2080 2081
2080 2082
2081 2095
2081 2098
2083 2090
2083 2094
2083 2097
2083 4896
2084 2096
2084 2099
2085 2763
2087 2094
2087 2098
2088 2091
2088 2092
2089 2094
2089 2097
2089 2098
2089 4425
2093 2097
2094 3780
2097 2099
2097 3635
2100 2107
2100 2127
2100 2131
2100 2151
2100 2154
2100 2187
2100 2191
2101 2115
2101 2125
2101 2127
2101 2131
2101 2150
2101 2152
2101 2171
2101 2181
2101 2184
2101 2196
2102 2105
2102 2106
2102 2107
2102 2112
2102 2121
2102 2133
2102 2139
2102 2150
2102 2151
2102 2152
2102 2175
2102 2178
2102 2183
2102 2192
2103 2109
2103 2110
2103 2120
2103 2125
2103 2132
2103 2134
2103 2143
2103 2147
2103 2156
2103 2159
2103 2170
2103 2183
2103 2191
2103 2192
2103 2195
2104 2109
2104 2153
2104 2172
2104 2186
2104 2189
2104 2195
2104 2198
2105 2108
2105 2120
2105 2127
2105 2136
2105 2147
2105 2151
2105 2159
2105 2160
2105 2173
2105 2178
2105 2185
2105 2186
2105 2194
2105 2197
2105 4683
2106 2107
2106 2111
2106 2113
2106 2114
2106 2140
2106 2142
2106 2143
2106 2161
2106 2177
2106 2183
2106 2187
2106 2198
2107 2111
2107 2121
2107 2137
2107 2144
2107 2150
2107 2153
2107 2178
2108 2126
2108 2131
2108 2141
2108 2142
2108 2152
2108 2178
2108 2179
2108 2185
2108 2196
2109 2118
2109 2130
2109 2132
2109 2144
2109 2152
2109 2157
2109 2158
2110 2113
2110 2114
2110 2135
2110 2140
2110 2149
2110 2156
2110 2160
2110 2170
2110 2177
2110 2179
2110 2185
2110 2192
2111 2122
2111 2127
2111 2129
2111 2130
2111 2132
2111 2140
2111 2148
2111 2150
2111 2152
2111 2160
2111 2170
2111 2177
2111 2187
2111 2195
2112 2116
2112 2159
2112 2165
2112 2171
2112 2172
2112 2185
2113 2117
2113 2133
2113 2134
2113 2148
2113 3451
2114 2123
2114 2141
2114 2143
2114 2148
2114 2160
2114 2170
2114 2177
2115 2116
2115 2120
2115 2134
2115 2137
2115 2147
2115 2153
2115 2174
2115 2177
2115 2179
2115 2184
2115 2185
2115 2187
2116 2118
2116 2127
2116 2138
2116 2144
2116 2150
2116 2153
2116 2170
2116 2181
2116 2183
2116 2194
2117 2126
2117 2131
2117 2142
2117 2149
2117 2165
2117 2169
2117 2178
2117 2181
2117 2192
2117 2194
2118 2120
2118 2147
2118 2151
2118 2156
2118 2178
2118 2181
2118 2184
2118 2186
2118 2190
2119 2124
2119 2138
2119 2145
2119 2158
2119 2162
2119 2173
2119 2199
2120 2124
2120 2135
2120 2137
2120 2139
2120 2151
2120 2154
2120 2157
2120 2162
2120 2164
2120 2188
2120 2190
2121 2124
2121 2127
2121 2134
2121 2136
2121 2162
2121 2174
2121 2180
2121 2188
2121 2194
2122 2148
2122 2151
2122 2154
2122 2160
2122 2174
2122 2182
2122 3455
2123 2135
2123 2142
2123 2162
2123 2167
2123 2193
2123 2198
2124 2138
2124 2144
2124 2155
2124 2158
2124 2159
2124 2194
2125 2126
2125 2147
2125 2148
2125 2152
2125 2154
2125 2159
2125 2164
2125 2199
2126 2139
2126 2149
2126 2171
2126 2183
2126 2190
2126 2193
2127 2139
2127 2140
2127 2147
2127 2169
2127 2180
2127 2187
2128 2138
2128 2145
2128 2147
2128 2155
2128 2160
2128 2162
2128 2166
2128 2174
2129 2152
2129 2155
2129 2158
2129 2173
2129 2175
2129 2184
2129 2189
2130 2131
2130 2134
2130 2137
2130 2142
2130 2161
2130 2174
2130 2181
2130 2189
2130 2194
2130 2195
2130 2197
2131 2139
2131 2145
2131 2155
2131 2159
2131 2165
2131 2166
2131 2168
2131 2170
2131 2172
2131 2177
2131 2186
2132 2135
2132 2157
2132 2159
2132 2163
2132 2172
2132 2180
2132 2185
2132 2186
2132 2187
2132 2189
2132 2193
2133 2149
2133 2161
2133 2184
2133 2189
2134 2139
2134 2141
2134 2143
2134 2158
2134 2174
2134 2181
2135 2199
2136 2145
2136 2147
2136 2148
2136 2163
2136 2167
2136 2174
2136 2177
2136 2190
2137 2138
2137 2139
2137 2158
2137 2162
2137 2181
2137 2188
2137 2192
2137 2197
2138 2158
2138 2166
2138 2178
2138 2187
2138 2195
2138 3860
2139 2173
2139 2194
2140 2141
2140 2151
2140 2185
2140 2186
2140 2195
2140 2936
2140 3170
2140 3572
2141 2145
2141 2151
2141 2170
2141 2174
2141 2175
2141 2181
2141 2189
2141 2194
2141 2199
2142 2147
2142 2150
2142 2176
2142 2179
2142 2182
2142 2187
2142 2198
2143 2144
2143 2153
2143 2161
2143 2175
2143 2176
2143 2194
2144 2145
2144 2150
2144 2151
2144 2159
2144 2192
2145 2159
2145 2167
2145 2169
2145 2176
2145 2187
2146 2148
2146 2149
2146 2160
2146 2188
2147 2155
2147 2161
2147 2163
2147 2164
2147 2169
2147 2179
2147 2180
2147 2184
2147 2195
2147 2196
2147 2350
2148 2157
2148 2175
2148 2190
2149 2150
2149 2158
2149 2161
2149 2164
2149 2166
2149 2167
2149 2169
2149 2173
2149 2186
2149 2194
2150 2189
2150 2190
2151 2158
2151 2161
2151 2165
2151 2174
2151 2175
2152 2161
2152 2170
2152 2175
2152 2190
2152 2197
2153 2161
2153 2164
2153 2165
2153 2171
2153 3597
2154 2165
2154 2166
2154 2191
2154 2198
2154 2243
2154 2896
2154 3972
2155 2160
2155 2166
2155 2199
2156 2157
2156 2172
2156 2177
2156 2179
2156 2189
2156 2190
2156 2196
2157 3384
2158 2160
2158 2173
2158 2178
2158 2186
2158 2193
2158 2196
2159 2182
2159 2192
2159 2195
2159 2196
2159 2199
2160 2161
2160 2172
2160 2174
2160 2183
2161 2198
2162 2185
2162 4587
2163 2166
2163 2194
2163 3293
2164 2167
2164 2186
2164 2192
2164 2193
2164 2199
2165 2175
2165 2181
2165 2191
2165 2193
2166 2177
2166 2197
2166 2198
2166 2505
2166 3585
2167 2179
2167 2193
2167 3289
2168 2188
2168 2196
2169 2173
2169 2175
2169 2178
2169 2183
2169 2191
2169 4104
2170 2186
2171 2177
2171 2187
2171 2195
2172 2173
2172 2178
2172 2192
2174 2175
2174 2190
2174 2191
2174 2193
2175 2180
2175 2182
2175 2186
2175 4292
2176 2182
2177 2186
2177 4000
2177 4938
2178 2186
2178 2189
2178 2192
2178 2195
2178 2199
2179 2192
2180 2188
2181 2184
2181 2190
2181 2195
2182 2184
2182 2190
2182 4080
2182 4332
2184 2190
2184 2196
2185 2192
2185 2196
2185 3954
2186 2191
2186 2689
2186 4594
2188 2192
2189 2199
2189 3718
2191 2530
2192 2197
2194 2199
2194 4572
2196 2198
2196 2199
2199 4125
2200 2204
2200 2207
2200 2229
2200 2240
2200 2242
2200 2271
2200 2275
2200 2285
2201 2207
2201 2224
2201 2225
2201 2231
2201 2241
2201 2251
2201 2258
2201 2265
2201 2267
2201 2277
2202 2205
2202 2231
2202 2247
2202 2249
2202 2265
2202 2287
2202 3668
2203 2205
2203 2206
2203 2208
2203 2209
2203 2213
2203 2231
2203 2248
2203 2250
2203 2252
2203 2275
2203 2292
2203 2298
2203 3695
2204 2218
2204 2228
2204 2253
2204 2257
2204 2258
2204 2277
2204 2279
2204 2281
2204 2290
2204 2293
2204 2298
2205 2207
2205 2211
2205 2220
2205 2239
2205 2248
2205 2251
2205 2252
2206 2210
2206 2233
2206 2243
2206 2284
2206 2290
2206 2299
2206 3120
2207 2217
2207 2265
2207 2282
2207 2287
2207 2290
2207 4406
2208 2213
2208 2217
2208 2238
2208 2289
2208 2291
2208 4251
2209 2210
2209 2214
2209 2235
2209 2241
2209 2244
2209 2245
2209 2249
2209 2259
2209 2262
2209 2263
2209 2273
2209 2284
2209 2289
2209 2292
2209 4079
2210 2227
2210 2238
2210 2245
2210 2246
2210 2250
2210 2257
2210 2267
2210 2272
2210 2273
2210 2282
2210 2285
2210 2289
2210 2291
2211 2215
2211 2217
2211 2226
2211 2255
2211 2280
2212 2213
2212 2221
2212 2245
2212 2255
2212 2274
2212 2277
2212 2286
2212 2287
2212 2290
2212 2298
2213 2231
2213 2257
2213 2265
2213 2267
2213 2276
2213 2297
2214 2222
2214 2234
2214 2243
2214 2251
2214 2253
2214 2265
2214 2266
2214 2283
2214 2838
2215 2216
2215 2220
2215 2259
2215 2260
2215 2271
2215 2273
2215 2286
2215 2299
2216 2224
2216 2231
2216 2233
2216 2234
2216 2236
2216 2239
2216 2257
2216 2262
2216 2281
2217 2228
2217 2237
2217 2241
2217 2258
2217 2278
2217 2279
2217 2280
2217 2287
2217 2292
2218 2222
2218 2240
2218 2248
2218 2253
2218 2274
2218 2291
2218 2297
2218 2298
2219 2221
2219 2257
2219 2258
2219 2259
2219 2264
2219 2269
2219 2270
2219 2273
2219 2276
2219 2277
2219 2292
2219 2293
2220 2222
2220 2244
2220 2247
2220 2254
2220 2267
2220 2277
2220 2279
2221 2224
2221 2228
2221 2259
2221 2260
2221 2276
2221 2290
2221 2299
2221 2898
2222 2249
2222 2259
2222 2265
2222 2285
2223 2225
2223 2244
2223 2258
2223 2267
2223 2273
2223 2277
2223 2278
2223 2286
2224 2238
2224 2250
2224 2251
2224 2282
2224 2288
2225 2230
2225 2243
2225 2249
2225 2256
2225 2264
2225 2274
2225 2297
2226 2237
2226 2242
2226 2251
2226 2274
2226 2279
2227 2229
2227 2234
2227 2238
2227 2253
2227 2282
2227 2292
2228 2231
2228 2236
2228 2245
2228 2265
2228 2285
2228 2299
2229 2240
2229 2262
2229 2272
2229 2283
2229 2292
2229 2298
2230 2235
2230 2238
2230 2247
2230 2248
2230 2260
2230 2264
2230 2265
2230 2272
2230 2276
2230 2281
2230 2285
2230 2296
2230 4462
2231 2239
2231 2241
2231 2242
2231 2253
2231 2286
2231 2293
2232 2249
2232 2255
2232 2259
2232 2270
2232 2271
2232 2276
2232 2277
2232 2286
2232 4048
2233 2239
2233 2257
2233 2276
2233 2282
2233 2290
2233 2517
2234 2237
2234 2240
2234 2242
2234 2256
2234 2273
2234 2280
2234 2290
2234 3553
2235 2243
2235 2246
2235 2254
2235 2258
2235 2260
2235 2272
2235 2274
2235 2275
2235 2278
2235 2287
2235 2289
2235 2290
2235 2725
2236 2237
2236 2240
2236 2253
2236 2257
2236 2262
2236 2264
2236 2272
2236 2288
2236 2291
2236 2293
2236 2297
2236 2298
2237 2240
2237 2253
2237 2255
2237 2277
2237 2286
2238 2240
2238 2242
2238 2245
2238 2250
2238 2262
2238 2265
2238 2282
2238 2291
2239 2259
2239 2263
2239 2280
2239 2284
2239 2292
2240 2241
2240 2244
2240 2255
2240 2258
2240 2285
2241 2250
2241 2260
2241 2266
2241 2284
2241 2285
2241 2286
2241 2297
2242 2254
2242 2260
2242 2282
2242 2285
2242 2295
2242 2296
2243 2251
2243 2258
2243 2276
2243 2281
2243 2289
2243 2299
2244 2263
2244 2266
2244 2271
2244 2282
2244 2285
2244 2286
2244 2292
2244 2294
2245 2247
2245 2250
2245 2263
2245 2287
2245 2292
2245 2325
2246 2247
2246 2276
2246 2286
2246 3800
2247 2251
2247 2268
2247 2270
2247 2271
2247 2295
2248 2254
2248 2280
2249 2258
2249 2270
2250 2272
2250 2288
2250 2293
2250 4498
2251 2255
2251 2256
2251 2270
2251 2272
2251 2287
2251 4689
2251 4895
2252 2255
2252 2256
2253 2260
2253 2266
2253 2269
2253 2282
2253 2299
2253 4393
2254 2268
2254 2274
2254 2281
2254 2298
2255 2282
2255 2295
2256 2273
2256 2275
2256 2280
2256 2291
2256 2294
2256 2295
2257 2260
2257 2278
2257 2282
2257 3880
2258 2263
2258 2276
2258 2296
2259 2261
2259 2278
2259 2284
2259 3764
2260 2266
2260 2270
2260 2271
2260 2272
2260 2285
2260 2295
2260 2296
2260 2299
2261 2277
2261 2285
2261 2286
2261 2299
2262 2271
2262 2292
2263 2267
2263 2287
2263 2296
2264 2271
2264 2274
2264 2290
2264 2293
2265 2269
2265 2271
2265 2272
2265 2287
2265 2299
2266 2268
2266 2278
2266 2280
2266 2284
2266 2290
2266 2298
2266 3484
2267 2270
2267 2278
2267 2286
2268 2289
2268 2294
2268 2806
2269 2271
2269 2290
2270 2271
2270 2281
2270 2294
2270 2299
2271 2280
2271 2289
2271 2293
2271 4047
2272 2283
2272 2290
2273 2283
2273 2285
2273 2286
2273 2293
2273 2880
2274 2286
2274 2297
2275 2279
2275 2286
2275 2295
2276 2285
2276 3740
2277 2284
2277 2286
2278 2280
2278 2285
2279 2280
2279 2282
2279 2284
2280 4911
2281 2295
2281 2296
2282 2287
2282 2291
2282 2297
2283 2288
2283 2297
2283 4788
2284 2297
2284 2298
2286 2291
2287 2289
2287 2292
2289 2290
2289 2291
2290 2291
2290 2297
2290 2299
2290 2302
2291 2292
2292 2713
2292 3206
2293 2296
2296 2298
2296 3719
2297 2742
2300 2304
2300 2315
2300 2319
2300 2335
2300 2356
2300 2359
2300 2371
2300 2385
2300 2393
2300 2396
2301 2315
2301 2316
2301 2326
2301 2342
2301 2344
2301 2346
2301 2355
2301 2359
2301 2360
2301 2365
2301 2375
2301 2384
2301 2391
2301 2395
2301 2397
2301 2399
2302 2307
2302 2314
2302 2317
2302 2318
2302 2336
2302 2354
2302 2369
2302 2377
2302 2384
2302 2391
2302 3458
2303 2313
2303 2327
2303 2332
2303 2338
2303 2344
2303 2351
2303 2354
2303 2362
2303 2372
2303 2379
2303 2383
2303 2391
2304 2306
2304 2317
2304 2331
2304 2343
2304 2344
2304 2347
2304 2360
2304 2363
2304 2364
2304 2375
2304 2376
2304 2386
2304 2388
2304 2392
2304 2399
2305 2310
2305 2322
2305 2334
2305 2351
2305 2357
2305 2366
2305 2390
2305 2395
2306 2319
2306 2321
2306 2347
2306 2355
2306 2365
2306 2366
2306 2368
2306 2377
2306 2382
2306 2387
2307 2317
2307 2321
2307 2331
2307 2348
2307 2350
2307 2384
2307 2385
2307 2395
2307 2396
2307 2399
2308 2315
2308 2316
2308 2335
2308 2337
2308 2342
2308 2355
2308 2359
2308 2377
2308 2380
2308 2389
2308 2395
2308 2398
2309 2322
2309 2331
2309 2349
2309 2350
2309 2367
2309 2372
2309 2373
2309 2374
2309 2388
2309 2390
2309 2393
2310 2316
2310 2322
2310 2324
2310 2333
2310 2338
2310 2349
2310 2352
2310 2354
2310 2386
2310 2550
2311 2377
2311 2380
2311 2389
2311 2390
2312 2327
2312 2330
2312 2332
2312 2333
2312 2339
2312 2359
2312 2366
2312 2381
2312 2396
2312 3220
2313 2315
2313 2324
2313 2335
2313 2336
2313 2339
2313 2356
2313 2377
2313 2382
2313 2388
2313 2392
2313 2397
2314 2323
2314 2324
2314 2343
2314 2345
2314 2348
2314 2357
2314 2358
2314 2362
2314 2363
2314 2367
2314 2371
2314 2376
2314 2377
2314 4178
2315 2316
2315 2341
2315 2343
2315 2348
2315 2351
2315 2358
2315 2381
2315 2393
2315 2397
2315 2903
2315 3317
2316 2324
2316 2343
2316 2398
2317 2327
2317 2333
2317 2343
2317 2351
2317 2393
2318 2322
2318 2330
2318 2333
2318 2335
2318 2339
2318 2359
2319 2323
2319 2327
2319 2340
2319 2353
2319 2364
2319 2369
2319 2372
2319 2385
2319 2386
2319 2397
2319 2398
2320 2325
2320 2332
2320 2334
2320 2357
2320 2363
2320 2364
2320 2377
2320 2386
2320 2393
2320 2397
2321 2375
2322 2325
2322 2326
2322 2330
2322 2342
2322 2347
2322 2348
2322 2363
2322 2369
2322 2385
2322 2389
2322 2390
2322 2399
2323 2326
2323 2333
2323 2351
2323 2373
2323 2374
2323 2386
2323 2394
2324 2330
2324 2338
2324 2339
2324 2376
2324 2377
2324 2379
2324 2382
2324 2391
2324 2395
2325 2330
2325 2334
2325 2349
2325 2357
2325 2359
2325 2363
2325 2369
2325 2377
2325 2382
2325 2387
2325 2393
2326 2344
2326 2347
2326 2353
2326 2363
2326 2365
2326 2372
2326 2385
2326 2389
2326 2394
2327 2330
2327 2345
2327 2347
2327 2349
2327 2365
2327 2375
2327 2377
2327 2378
2327 2392
2327 2397
2328 2349
2328 2365
2328 2369
2328 2389
2328 2392
2328 2393
2328 3183
2329 2351
2329 2354
2329 2356
2329 2365
2329 2385
2330 2333
2330 2338
2330 2349
2330 2369
2330 2391
2330 2399
2331 2355
2331 2358
2331 2369
2332 2335
2332 2336
2332 2345
2332 2366
2332 2386
2333 2356
2333 2372
2333 2388
2334 2337
2334 2359
2334 2362
2334 2363
2334 2366
2335 2360
2335 2361
2335 2376
2335 2383
2336 2346
2336 2358
2336 2366
2336 2384
2336 2387
2336 2388
2336 2398
2337 2364
2337 2365
2337 2370
2337 2371
2337 2379
2337 2394
2337 2395
2337 2398
2337 4336
2338 2340
2338 2346
2338 2374
2338 2397
2339 2341
2339 2348
2339 2352
2339 2360
2339 2369
2339 2383
2339 2389
2340 2388
2340 2393
2340 2399
2340 3601
2341 2362
2341 2376
2341 2384
2341 2395
2342 2353
2342 2357
2342 2374
2342 2391
2342 2398
2342 4255
2342 4916
2343 2356
2343 2365
2343 2370
2343 2389
2343 2391
2343 2396
2343 2397
2344 2379
2344 2389
2345 2350
2345 2369
2345 2388
2345 2397
2346 2349
2346 2352
2346 2365
2346 2367
2346 2375
2346 2397
2346 2398
2347 2372
2347 2378
2347 2382
2347 2392
2347 2393
2348 2351
2348 2366
2348 2368
2348 2374
2348 2376
2348 2377
2349 2366
2349 2367
2349 2374
2349 2387
2349 2388
2350 2352
2350 2353
2350 2370
2350 2391
2351 2354
2351 2357
2351 2358
2351 2362
2351 2364
2351 2388
2351 2390
2351 2399
2352 2362
2352 2364
2352 2372
2352 2380
2352 2382
2352 2393
2353 2356
2353 2357
2353 2362
2353 2364
2353 2392
2354 2357
2354 2378
2354 2380
2354 2384
2354 2385
2354 2399
2355 2362
2355 2368
2355 2371
2355 2383
2355 2392
2356 2360
2356 2399
2357 2365
2357 2393
2357 2394
2357 2399
2358 2360
2358 2376
2358 2383
2358 4553
2359 2363
2359 2733
2359 3115
2360 2364
2360 2375
2360 2378
2360 2388
2360 2395
2361 2373
2361 2385
2362 2376
2362 2396
2363 2371
2363 2377
2363 2394
2363 2397
2364 2391
2364 2393
2365 2370
2365 2380
2365 2383
2365 3195
2366 2378
2366 2383
2367 2374
2367 2378
2367 2397
2368 2381
2368 2382
2368 2383
2368 2397
2369 2371
2369 2378
2369 2399
2370 2374
2370 2377
2370 2392
2370 2396
2370 4463
2371 2382
2371 2385
2371 4871
2373 2379
2373 3205
2374 2395
2374 3392
2375 2377
2375 2394
2375 2399
2376 2382
2376 2386
2376 2388
2376 4596
2377 2394
2377 2399
2378 2380
2378 2384
2378 2385
2379 2381
2379 2393
2380 2384
2380 2386
2380 2395
2380 2399
2381 2386
2381 2387
2382 2392
2382 2397
2382 4422
2383 2390
2383 2398
2384 2387
2384 2390
2387 2392
2387 2398
2388 2389
2388 2399
2389 2394
2389 2398
2389 4573
2391 2397
2393 2397
2393 3050
2398 3455
2400 2409
2400 2440
2400 2452
2400 2456
2400 2489
2400 4036
2401 2407
2401 2408
2401 2426
2401 2431
2401 2433
2401 2439
2401 2465
2401 2497
2401 2499
2402 2403
2402 2412
2402 2421
2402 2429
2402 2430
2402 2438
2402 2440
2402 2447
2402 2450
2402 2454
2402 2463
2402 2465
2402 2470
2402 2476
2402 2480
2402 2483
2402 2488
2403 2418
2403 2421
2403 2427
2403 2429
2403 2435
2403 2443
2403 2458
2403 2459
2403 2463
2403 2484
2403 3576
2404 2428
2404 2430
2404 2442
2404 2445
2404 2448
2404 2453
2404 2454
2405 2408
2405 2435
2405 2443
2405 2454
2405 2455
2405 2481
2405 2484
2405 3781
2406 2408
2406 2438
2406 2445
2406 2449
2406 2456
2406 2474
2406 2475
2406 2477
2406 2490
2407 2410
2407 2421
2407 2434
2407 2435
2407 2442
2407 2448
2407 2452
2407 2455
2407 2463
2407 2475
2407 2483
2407 2485
2407 2493
2407 2499
2408 2422
2408 2425
2408 2427
2408 2437
2408 2456
2408 2466
2408 2470
2408 2483
2408 2484
2408 2497
2408 3815
2409 2429
2409 2435
2409 2438
2409 2447
2409 2450
2409 2456
2409 2459
2409 2466
2409 2477
2409 2493
2410 2424
2410 2442
2410 2446
2410 2447
2410 2451
2410 2452
2410 2456
2410 2489
2410 2496
2411 2424
2411 2428
2411 2430
2411 2443
2411 2465
2411 2481
2411 2483
2411 2498
2412 2424
2412 2452
2412 2462
2412 2474
2412 2478
2413 2427
2413 2434
2413 2443
2413 2445
2413 2446
2413 2459
2413 2461
2413 2462
2413 2470
2413 2481
2414 2416
2414 2426
2414 2447
2414 2449
2414 2458
2414 2462
2414 2485
2414 2499
2415 2423
2415 2431
2415 2436
2415 2439
2415 2444
2415 2473
2415 2474
2415 2475
2415 2490
2415 2495
2416 2422
2416 2426
2416 2428
2416 2445
2416 2452
2416 2467
2416 2468
2416 2474
2416 2476
2416 2499
2416 3358
2417 2450
2417 2456
2417 2466
2417 2486
2417 2489
2417 2494
2417 2495
2417 4264
2418 2429
2418 2441
2418 2449
2418 2463
2418 2477
2418 2480
2418 2653
2419 2427
2419 2437
2419 2443
2419 2444
2419 2451
2419 2456
2419 2461
2419 2464
2419 2475
2419 2488
2420 2436
2420 2446
2420 2447
2420 2477
2420 2486
2420 2492
2421 2440
2421 2451
2421 2466
2421 2468
2421 2476
2421 2478
2421 2479
2421 2487
2421 2497
2422 2423
2422 2426
2422 2427
2422 2433
2422 2447
2422 2448
2423 2442
2423 2447
2423 2454
2423 2456
2423 2475
2423 2481
2423 2491
2423 2499
2424 2427
2424 2435
2424 2437
2424 2447
2424 2454
2424 2458
2424 2469
2424 2473
2424 2483
2424 2485
2424 2494
2424 2498
2425 2429
2425 2437
2425 2483
2425 2485
2425 2495
2426 2443
2426 2451
2426 2457
2426 2473
2426 2477
2426 2480
2426 2496
2427 2436
2427 2451
2427 2467
2427 2486
2427 3177
2427 4020
2428 2443
2428 2458
2428 2469
2428 2475
2428 2488
2428 2491
2428 2495
2429 2430
2429 2442
2429 2443
2429 2460
2429 2469
2429 2472
2429 2484
2430 2431
2430 2435
2430 2465
2430 2468
2430 2470
2430 2471
2430 2477
2430 2479
2430 2489
2431 2437
2431 2447
2431 2455
2431 2457
2431 2473
2431 2475
2432 2458
2432 2460
2432 2468
2432 2476
2432 2494
2432 2495
2433 2437
2433 2456
2434 2461
2434 2468
2434 2474
2434 2480
2434 2484
2434 2491
2434 2957
2434 3700
2435 2447
2435 2458
2435 2466
2435 2467
2435 2470
2435 2472
2435 2489
2435 2495
2436 2438
2436 2478
2436 2482
2436 2485
2436 2488
2437 2442
2437 2443
2437 2447
2437 2477
2437 2481
2437 2483
2437 2489
2437 2491
2437 2494
2438 2439
2438 2449
2438 2450
2438 2462
2438 2463
2438 2475
2438 2479
2438 2483
2438 2485
2438 2486
2438 2493
2438 2498
2439 2444
2439 2448
2439 2451
2439 2469
2439 2478
2439 2488
2439 2492
2439 2499
2439 2715
2440 2450
2440 2468
2440 2485
2440 2492
2440 2497
2441 2442
2441 2443
2441 2446
2441 2450
2441 2465
2441 2483
2442 2469
2442 2474
2442 2488
2442 2494
2443 2470
2443 2491
2444 2451
2444 2464
2444 2480
2444 2499
2445 2451
2445 2453
2445 2485
2445 2486
2445 2499
2446 2447
2446 2461
2446 2474
2446 2475
2447 2452
2447 2478
2447 2498
2448 2459
2448 2462
2448 2465
2448 2475
2448 2495
2449 2457
2449 2485
2449 2492
2450 2453
2450 2461
2450 2469
2450 2474
2450 2984
2450 4404
2451 2455
2451 2467
2451 2469
2451 2496
2452 2482
2452 2491
2453 2457
2453 2463
2453 2472
2453 2478
2453 2496
2453 2499
2453 3380
2453 4236
2454 2471
2454 2483
2454 2488
2454 2495
2455 2487
2455 2490
2455 2491
2455 2497
2456 2457
2456 2461
2456 2464
2456 2466
2456 2473
2456 2477
2456 2482
2456 2497
2456 4050
2457 2462
2457 2473
2457 2480
2457 2486
2457 2490
2458 2466
2458 2471
2458 2498
2459 2460
2459 2469
2459 2487
2460 2476
2460 2499
2461 2465
2461 2473
2461 2481
2461 2485
2461 2491
2462 2463
2462 2475
2462 2925
2463 2465
2463 2477
2463 2486
2463 2499
2464 2466
2464 2491
2464 2494
2465 2472
2465 2474
2465 2485
2465 2823
2466 2475
2466 2488
2466 2489
2467 2483
2468 2473
2468 2479
2468 2488
2469 2477
2469 2495
2470 2490
2470 2495
2471 2475
2471 2482
2471 2493
2472 4957
2473 2485
2473 2493
2474 2486
2474 2497
2475 2482
2475 2486
2475 2491
2475 2949
2476 2481
2476 2486
2476 2489
2476 2498
2477 2479
2478 2492
2478 2493
2479 2485
2479 2490
2479 2498
2479 4944
2480 2487
2480 2494
2481 2491
2481 2494
2481 2499
2482 2488
2483 2485
2483 2486
2483 2494
2484 2486
2484 2495
2485 2496
2488 2494
2490 2498
2491 2499
2492 2498
2494 2499
2494 4933
2495 2499
2496 2498
2500 2506
2500 2517
2500 2518
2500 2539
2500 2547
2500 2559
2500 2564
2500 2578
2500 2595
2501 2513
2501 2518
2501 2520
2501 2534
2501 2549
2501 2559
2501 2570
2501 2572
2501 2593
2501 2595
2501 2596
2502 2519
2502 2520
2502 2525
2502 2528
2502 2535
2502 2547
2502 2550
2502 2567
2502 2568
2502 2574
2502 2585
2503 2514
2503 2518
2503 2522
2503 2523
2503 2530
2503 2531
2503 2535
2503 2544
2503 2552
2503 2554
2503 2557
2503 2569
2503 2574
2503 2575
2503 2588
2503 2594
2503 2596
2504 2519
2504 2522
2504 2547
2504 2555
2504 2560
2504 2561
2504 2566
2504 2586
2504 2588
2504 2592
2505 2512
2505 2515
2505 2526
2505 2536
2505 2557
2505 2568
2505 2574
2505 2575
2505 2585
2505 2586
2505 2589
2505 2595
2505 2597
2505 2598
2506 2554
2506 2563
2506 2567
2506 2571
2506 2576
2506 2579
2506 2583
2506 2590
2506 2593
2506 2596
2507 2512
2507 2514
2507 2523
2507 2534
2507 2545
2507 2560
2507 2562
2507 2573
2507 2576
2507 2577
2508 2516
2508 2538
2508 2580
2508 2581
2508 2585
2508 2586
2508 2588
2509 2523
2509 2534
2509 2536
2509 2538
2509 2539
2509 2546
2509 2547
2509 2556
2509 2579
2509 2582
2509 2583
2509 2586
2509 2593
2509 2599
2510 2556
2510 2557
2510 2558
2510 2571
2510 2591
2510 2594
2510 2597
2510 2599
2510 4190
2510 4767
2511 2519
2511 2521
2511 2543
2511 2550
2511 2556
2511 2569
2511 2572
2511 2591
2511 2593
2511 4172
2512 2533
2512 2534
2512 2545
2512 2548
2512 2550
2512 2556
2512 2558
2512 2562
2512 2570
2512 2581
2512 2591
2512 2595
2513 2557
2513 2562
2513 2568
2513 2572
2513 2574
2513 2588
2513 2594
2514 2518
2514 2531
2514 2533
2514 2540
2514 2556
2514 2558
2514 2582
2514 2592
2515 2516
2515 2518
2515 2528
2515 2548
2515 2552
2515 2554
2515 2572
2515 2578
2515 2594
2516 2523
2516 2526
2516 2527
2516 2535
2516 2577
2516 2589
2516 4883
2517 2518
2517 2527
2517 2553
2517 2555
2517 2567
2517 2574
2517 2580
2517 2683
2518 2540
2518 2542
2518 2544
2518 2580
2519 2525
2519 2534
2519 2553
2519 2555
2519 2570
2519 2590
2519 3299
2520 2530
2520 2538
2520 2548
2520 2565
2520 2578
2520 2596
2521 2532
2521 2535
2521 2539
2521 2542
2521 2547
2521 2556
2521 2563
2521 2570
2521 2572
2521 2587
2521 2588
2521 2593
2521 3530
2522 2527
2522 2532
2522 2534
2522 2550
2522 2555
2522 2556
2522 2557
2522 2578
2522 2584
2522 2586
2522 2590
2523 2531
2523 2557
2523 2568
2523 2574
2524 2531
2524 2537
2524 2541
2524 2549
2524 2553
2524 2564
2524 2580
2524 2586
2524 2592
2525 2530
2525 2541
2525 2549
2525 2550
2525 2554
2525 2573
2525 2599
2526 2532
2526 2550
2526 2554
2526 2556
2526 2562
2526 2576
2526 2586
2527 2528
2527 2532
2527 2550
2527 2556
2527 2598
2527 4475
2528 2532
2528 2539
2528 2567
2528 2572
2529 2556
2529 2562
2529 2572
2529 2584
2529 2589
2529 2598
2529 4050
2530 2532
2530 2552
2530 2558
2530 2565
2530 2569
2530 2585
2530 2590
2530 2599
2531 2535
2531 2553
2531 2555
2531 2563
2531 2570
2531 2577
2531 2582
2531 2586
2531 2588
2532 2540
2532 2549
2533 2543
2533 2546
2533 2557
2533 2564
2533 2575
2533 2576
2533 2599
2534 2545
2534 2553
2534 2556
2534 2560
2534 2577
2534 2581
2535 2542
2535 2547
2535 2586
2536 2552
2536 2559
2536 2573
2536 2577
2536 2588
2537 2567
2537 2581
2537 2591
2537 2596
2537 3717
2538 2546
2538 2550
2538 2558
2538 2569
2538 2579
2539 2541
2539 2546
2539 2565
2539 2569
2539 2573
2539 2577
2539 2580
2539 2582
2539 2591
2539 2592
2539 2598
2540 2541
2540 2565
2540 2573
2540 2592
2540 2593
2541 2545
2541 2550
2541 2556
2541 2558
2541 2563
2541 2574
2541 2577
2541 2592
2542 2547
2542 2554
2542 2582
2542 2585
2542 2589
2542 2597
2543 2552
2543 2554
2543 2562
2543 2563
2543 3781
2544 2556
2544 2578
2544 2580
2544 2585
2544 2587
2544 2592
2545 2568
2545 2575
2545 2576
2545 2580
2545 2590
2546 2560
2546 2569
2546 2585
2546 2587
2546 2596
2547 2548
2547 2557
2547 2558
2548 2551
2548 2569
2548 2596
2549 2552
2549 2560
2549 2565
2549 2566
2549 2577
2549 2585
2549 2588
2549 2599
2549 4072
2550 2552
2550 2558
2550 2566
2550 2572
2550 2580
2550 2582
2550 2594
2551 2569
2551 2575
2551 2584
2551 2596
2552 2553
2552 2556
2552 2560
2552 2565
2552 2567
2552 2598
2552 4747
2553 2557
2553 2561
2553 2564
2553 2569
2553 2583
2553 2589
2554 2556
2554 2566
2554 2578
2554 2585
2554 2594
2555 2557
2555 2564
2555 2581
2555 3173
2556 2560
2556 2563
2556 2566
2556 2573
2556 2584
2556 2589
2557 2563
2557 2565
2557 2583
2557 2593
2558 2564
2558 2573
2558 2591
2559 2568
2559 2573
2559 2575
2559 2576
2559 2587
2560 2567
2560 2575
2560 2588
2561 2571
2561 2581
2561 2591
2561 2595
2561 2596
2561 2597
2562 2565
2562 2577
2562 2580
2562 2594
2563 2564
2563 2582
2563 2585
2563 2588
2564 2576
2564 2588
2564 2598
2564 3622
2565 2577
2565 4290
2566 2573
2566 2577
2566 2579
2566 2590
2567 2568
2567 2581
2567 2592
2568 2569
2568 2588
2568 2591
2569 2570
2569 2573
2569 2584
2569 2588
2569 2591
2570 2574
2570 2581
2570 2585
2570 2588
2570 2962
2570 4868
2571 2577
2571 3873
2572 2574
2572 2575
2572 2579
2572 2590
2573 2575
2573 2576
2573 2590
2573 2593
2573 2595
2573 2994
2574 2585
2574 2586
2574 2590
2574 2595
2575 2591
2576 2591
2576 2595
2577 3978
2578 2579
2578 2583
2578 2589
2579 2599
2579 3050
2580 2582
2580 2591
2580 2593
2580 3580
2581 2584
2581 2585
2581 2593
2583 2590
2584 2592
2585 2586
2585 2595
2585 2599
2586 2599
2586 4730
2588 2592
2588 2594
2589 2597
2590 2599
2592 2599
2592 2817
2593 2599
2596 2598
2599 4672
2600 2604
2600 2607
2600 2611
2600 2642
2600 2650
2600 2653
2600 2656
2600 2667
2600 2673
2600 2841
2601 2604
2601 2606
2601 2609
2601 2618
2601 2619
2601 2629
2601 2639
2601 2645
2601 2647
2601 2670
2601 2681
2601 3444
2602 2603
2602 2605
2602 2610
2602 2612
2602 2621
2602 2624
2602 2642
2602 2669
2602 2676
2602 2682
2603 2605
2603 2606
2603 2608
2603 2621
2603 2628
2603 2634
2603 2643
2603 2648
2603 2653
2603 2663
2603 2669
2603 2673
2603 2689
2604 2613
2604 2614
2604 2641
2604 2652
2604 2655
2604 2658
2604 2663
2604 2665
2604 2674
2604 2693
2604 2696
2604 4089
2605 2607
2605 2617
2605 2621
2605 2667
2605 2683
2605 2685
2605 2694
2606 2609
2606 2640
2606 2649
2606 2662
2606 2677
2606 2694
2607 2610
2607 2615
2607 2619
2607 2632
2607 2648
2607 2650
2607 2680
2607 2684
2607 2685
2607 2693
2608 2622
2608 2623
2608 2634
2608 2636
2608 2649
2608 2654
2608 2669
2608 2674
2608 2690
2608 2696
2609 2618
2609 2628
2609 2631
2609 2647
2609 2659
2609 2669
2609 2685
2610 2611
2610 2614
2610 2621
2610 2622
2610 2630
2610 2638
2610 2648
2610 2653
2610 2694
2611 2618
2611 2636
2611 2647
2611 2651
2611 2656
2611 2664
2611 2667
2611 2681
2611 2682
2611 2685
2611 2696
2611 3878
2612 2618
2612 2631
2612 2632
2612 2645
2612 2653
2612 2655
2612 2663
2612 2667
2612 2675
2612 2686
2612 2696
2613 2619
2613 2638
2613 2648
2613 2659
2613 2660
2613 2663
2613 2665
2613 2669
2613 2678
2613 2682
2613 2683
2613 2691
2614 2630
2614 2648
2614 2649
2614 2667
2614 2672
2614 2679
2614 2691
2615 2627
2615 2647
2615 2652
2615 2673
2615 2677
2615 2680
2615 2685
2615 2686
2615 2693
2615 2695
2615 2698
2616 2617
2616 2623
2616 2654
2616 2658
2616 2667
2616 2679
2616 2684
2616 2693
2617 2620
2617 2623
2617 2628
2617 2633
2617 2654
2617 2656
2617 2660
2617 2684
2617 2689
2617 2699
2618 2640
2618 2663
2618 2668
2618 2671
2618 2691
2618 2698
2618 3988
2619 2624
2619 2626
2619 2631
2619 2640
2619 2654
2619 2694
2619 2698
2620 2625
2620 2629
2620 2638
2620 2639
2620 2650
2620 2657
2620 2668
2620 2673
2620 2675
2620 2683
2620 2688
2620 2689
2621 2633
2621 2636
2621 2648
2621 2653
2621 2657
2621 2659
2621 2669
2621 2683
2621 2687
2621 2690
2621 2692
2622 2628
2622 2632
2622 2652
2622 2656
2622 2667
2622 2668
2622 2696
2622 2698
2623 2636
2623 2642
2623 2645
2623 2654
2623 2655
2623 2668
2623 2672
2623 2680
2623 2692
2624 2654
2624 2670
2624 2679
2624 2691
2625 2638
2625 2650
2625 2652
2625 2660
2625 2667
2625 2689
2625 2690
2625 2691
2626 2649
2626 2655
2626 2666
2626 2675
2626 2690
2626 2696
2626 3032
2627 2653
2627 2660
2627 2665
2627 2673
2627 2682
2627 2683
2627 2693
2628 2629
2628 2638
2628 2657
2628 2691
2629 2634
2629 2642
2629 2653
2629 2655
2629 2656
2629 2659
2629 2665
2629 2667
2629 2689
2629 2694
2629 2698
2630 2642
2630 2645
2630 2646
2630 2655
2630 2664
2630 2666
2630 2670
2630 2696
2631 2633
2631 2647
2631 2652
2631 2653
2631 2672
2631 2673
2631 2678
2631 2698
2632 2649
2632 2661
2632 2674
2632 2678
2632 2683
2632 2690
2633 2640
2633 2666
2633 2667
2633 2689
2633 2699
2634 2638
2634 2654
2634 2661
2634 2664
2634 2684
2634 2693
2634 2697
2634 2945
2635 2637
2635 2648
2635 2657
2635 2671
2635 2686
2635 2694
2635 2830
2636 2637
2636 2683
2636 2684
2637 2659
2637 2670
2637 2685
2637 2697
2637 2699
2637 3754
2638 2648
2638 2653
2638 2676
2638 2695
2639 2653
2639 2661
2639 2663
2639 2669
2639 2696
2639 2697
2640 2662
2640 2667
2640 2674
2640 2690
2640 2692
2641 2661
2641 2666
2641 2670
2641 2672
2641 2683
2641 2688
2641 2690
2641 2691
2641 2699
2642 2644
2642 2657
2642 2672
2643 2652
2643 2655
2643 2681
2643 2684
2643 2697
2644 2650
2644 2660
2644 2669
2644 2672
2644 2689
2644 2694
2645 2656
2645 2659
2645 2687
2646 2656
2646 2662
2646 2676
2646 2677
2647 2672
2647 2693
2647 3830
2648 2651
2648 2654
2648 2656
2648 2669
2648 2682
2648 3468
2649 2656
2649 2666
2649 2675
2649 2687
2649 2690
2650 2655
2650 2664
2650 2672
2650 2677
2651 2655
2651 2668
2651 2679
2651 2693
2652 2655
2652 2660
2652 2664
2652 2676
2652 2677
2652 2692
2653 2673
2653 2677
2653 2682
2653 2696
2654 2655
2654 2664
2654 2674
2654 2676
2654 2683
2654 2687
2654 2692
2654 2693
2654 2698
2654 3463
2655 2661
2655 2669
2655 2676
2655 2690
2655 2691
2656 2671
2657 2661
2657 2672
2657 2677
2657 2688
2657 2691
2658 2664
2658 2665
2658 2687
2658 2691
2658 2696
2658 2699
2659 2665
2659 2689
2659 2690
2660 2664
2660 2668
2660 2685
2660 2689
2661 2667
2661 2672
2661 2674
2661 2678
2661 2690
2661 2692
2661 2699
2662 2679
2662 2690
2663 2665
2663 2679
2663 2685
2663 2694
2664 2666
2664 2670
2664 2685
2664 2694
2664 2696
2665 2669
2665 2686
2666 2675
2666 2676
2666 2689
2666 2698
2667 2678
2667 2695
2668 2692
2668 2699
2669 2677
2669 2699
2670 2684
2672 2682
2673 2674
2673 2680
2673 2693
2673 3869
2674 2679
2674 2685
2675 2678
2675 2685
2675 2687
2675 2690
2676 2691
2677 2690
2677 2691
2678 2692
2678 2697
2679 2687
2682 2699
2683 2691
2684 2697
2685 2695
2685 2697
2686 2688
2686 2690
2686 2697
2687 2693
2688 2689
2689 2691
2689 2694
2690 2699
2691 2692
2691 2696
2692 2695
2695 2697
2696 4465
2700 2710
2700 2719
2700 2730
2700 2736
2700 2744
2700 2757
2700 2762
2700 2766
2700 2788
2700 2795
2701 2722
2701 2729
2701 2730
2701 2736
2701 2751
2701 2752
2701 2754
2701 2771
2701 2780
2701 2793
2702 2747
2702 2760
2703 2704
2703 2726
2703 2732
2703 2739
2703 2768
2703 2778
2703 2782
2703 2786
2703 2797
2704 2715
2704 2740
2704 2741
2704 2755
2704 2762
2704 2767
2704 2775
2704 2780
2704 3077
2705 2711
2705 2720
2705 2748
2705 2749
2705 2759
2705 2779
2705 2781
2705 2789
2705 2796
2705 2797
2705 2798
2706 2710
2706 2728
2706 2731
2706 2749
2706 2769
2706 2781
2706 2789
2706 2796
2707 2721
2707 2724
2707 2729
2707 2732
2707 2734
2707 2758
2707 2760
2707 2764
2708 2710
2708 2717
2708 2728
2708 2732
2708 2749
2708 2759
2708 2765
2708 2792
2709 2738
2709 2752
2709 2763
2709 2778
2709 4636
2710 2729
2710 2735
2710 2746
2710 2763
2710 2765
2710 2771
2710 2777
2710 2784
2710 2788
2711 2714
2711 2723
2711 2747
2711 2752
2711 2758
2711 2764
2711 2765
2711 2784
2711 2790
2712 2714
2712 2719
2712 2722
2712 2737
2712 2750
2712 2753
2712 2777
2712 2783
2712 2789
2712 2793
2713 2714
2713 2715
2713 2723
2713 2727
2713 2736
2713 2740
2714 2718
2714 2763
2714 2776
2715 2721
2715 2722
2715 2726
2715 2729
2715 2733
2715 2746
2715 2775
2715 2794
2716 2726
2716 2743
2716 2760
2716 2777
2716 2780
2716 2781
2716 2782
2716 2799
2717 2732
2717 2768
2717 2771
2717 2786
2717 2788
2717 2792
2718 2722
2718 2724
2718 2728
2718 2729
2718 2739
2718 2744
2718 2757
2718 2768
2718 2781
2718 2789
2718 2793
2718 2797
2718 3469
2719 2720
2719 2724
2719 2733
2719 2744
2719 2764
2719 2792
2719 2795
2719 2796
2720 2723
2720 2728
2720 2735
2720 2736
2720 2750
2720 2760
2720 2770
2720 2786
2720 2795
2721 2738
2721 2740
2721 2741
2721 2742
2721 2754
2721 2765
2721 2770
2721 2789
2721 2796
2722 2742
2722 2743
2722 2761
2722 2784
2723 2726
2723 2739
2723 2743
2723 2745
2723 2747
2723 2750
2723 2770
2723 2785
2724 2749
2724 2750
2724 2768
2724 2770
2724 2773
2724 2787
2724 2796
2724 2798
2725 2741
2725 2754
2725 2776
2725 2777
2725 2779
2725 2792
2726 2741
2726 2743
2726 2751
2726 2755
2727 2728
2727 2754
2727 2757
2727 2767
2727 2788
2728 2730
2728 2741
2728 2756
2728 2757
2728 2776
2728 2777
2728 4425
2729 2747
2729 2753
2729 2757
2729 2773
2729 2792
2729 2796
2730 2732
2730 2736
2730 2739
2730 2756
2730 2775
2730 2783
2730 2785
2730 2787
2730 2799
2731 2737
2731 2761
2731 2762
2731 2764
2731 2775
2731 2780
2731 2787
2732 2766
2732 2768
2732 2771
2732 2781
2732 3303
2732 4433
2733 2735
2733 2756
2733 2775
2733 2781
2733 2790
2733 2795
2733 4563
2734 2761
2734 2763
2734 2772
2734 2773
2735 2742
2735 2744
2735 2758
2735 2767
2735 2769
2735 2777
2735 2784
2735 2794
2735 2796
2735 3925
2736 2746
2736 2748
2736 2766
2736 2780
2737 2765
2737 2798
2738 2770
2738 2772
2738 2776
2738 2780
2738 3462
2739 2750
2739 2751
2739 2761
2739 2789
2739 3277
2740 2747
2740 2750
2740 2770
2740 2775
2740 2781
2740 2788
2740 2794
2741 2748
2741 2751
2741 2761
2741 2794
2742 2759
2742 3271
2743 2785
2743 4795
2744 2751
2744 2767
2744 2769
2744 2773
2744 2783
2744 2787
2744 2789
2744 2792
2745 2752
2745 2785
2745 2796
2746 2765
2746 2779
2746 2790
2746 2796
2747 2750
2747 2762
2747 2775
2747 2780
2747 2781
2747 2788
2747 2799
2748 2758
2748 2762
2748 2793
2748 2796
2748 2797
2749 2764
2749 2769
2749 2773
2749 2776
2749 2777
2749 2780
2749 2792
2749 2795
2749 2797
2749 2799
2750 2767
2750 2791
2750 2792
2750 2795
2750 2953
2751 2757
2751 2760
2751 2763
2751 2771
2751 2772
2751 2782
2752 2763
2752 2766
2752 2767
2752 2770
2753 2764
2753 2767
2753 2794
2753 4231
2754 2770
2754 2782
2754 2788
2754 2793
2754 2799
2755 2765
2755 2766
2755 2767
2755 2780
2755 2786
2755 2790
2756 2761
2756 2764
2756 2770
2756 2784
2756 2788
2756 2796
2757 2766
2757 2768
2757 2781
2757 2786
2757 3008
2758 2772
2758 2775
2759 2769
2759 2776
2759 2783
2759 2795
2760 2761
2760 2765
2760 2766
2760 2781
2760 2784
2760 2789
2760 2793
2761 2765
2761 2770
2761 2776
2761 2779
2761 2789
2761 2790
2761 2793
2761 2795
2761 2797
2762 2765
2762 2775
2762 2787
2762 2791
2763 2769
2763 2775
2763 2784
2764 2774
2764 2779
2764 2792
2764 4453
2765 2780
2765 2782
2765 2794
2766 2778
2766 2782
2766 2784
2766 3335
2766 4032
2767 2773
2767 2794
2767 2797
2768 2771
2768 2790
2769 2774
2769 2779
2769 2794
2769 2798
2771 2794
2772 2780
2772 2783
2772 2786
2772 2792
2772 2797
2772 4048
2773 2786
2773 2791
2773 3554
2774 2782
2774 2792
2774 2797
2774 2799
2775 2780
2776 2789
2776 2797
2777 2790
2777 2792
2778 2790
2779 2781
2779 2791
2780 2781
2780 4758
2781 2790
2781 2791
2782 2784
2782 2794
2783 2791
2784 2785
2784 2787
2784 2799
2785 2788
2785 2791
2785 2940
2787 2790
2787 2791
2787 2792
2787 2794
2787 2795
2787 4123
2788 2789
2788 2796
2788 2797
2789 2790
2789 2792
2790 2792
2790 2795
2792 2799
2792 4345
2795 2798
2800 2809
2800 2822
2800 2825
2800 2833
2800 2863
2800 2879
2800 2890
2800 2891
2801 2809
2801 2820
2801 2839
2801 2842
2801 2850
2801 2861
2801 2894
2802 2822
2802 2859
2802 2871
2802 2887
2802 2890
2803 2807
2803 2812
2803 2841
2803 2863
2803 2874
2803 2879
2803 2893
2803 2899
2803 3457
2804 2807
2804 2811
2804 2821
2804 2826
2804 2831
2804 2834
2804 2843
2804 2849
2804 2855
2804 2860
2804 2886
2804 2894
2805 2820
2805 2837
2805 2838
2805 2848
2805 2852
2805 2853
2805 2862
2805 2873
2805 2895
2806 2818
2806 2834
2806 2838
2806 2854
2806 2855
2806 2860
2806 2874
2806 2898
2807 2818
2807 2827
2807 2837
2807 2847
2807 2853
2807 2879
2807 2896
2808 2809
2808 2811
2808 2813
2808 2827
2808 2834
2808 2860
2808 2861
2808 2875
2808 2898
2808 2899
2808 4228
2809 2824
2809 2843
2809 2856
2809 2860
2809 2876
2809 2889
2809 2898
2809 2899
2810 2818
2810 2826
2810 2831
2810 2834
2810 2839
2810 2843
2810 2869
2810 2874
2810 2889
2810 2892
2810 2897
2811 2820
2811 2835
2811 2838
2811 2841
2811 2845
2811 2847
2811 2852
2811 2853
2811 2864
2811 2872
2811 2873
2811 2876
2811 2881
2811 2893
2812 2814
2812 2818
2812 2828
2812 2830
2812 2846
2812 2848
2812 2855
2812 2860
2812 2863
2812 2875
2812 2881
2812 2898
2813 2826
2813 2834
2813 2835
2813 2838
2813 2847
2813 2848
2813 2854
2813 2855
2813 2864
2813 2870
2813 2885
2813 2894
2813 2896
2813 3611
2814 2816
2814 2827
2814 2829
2814 2845
2814 2852
2814 2856
2814 2872
2814 2885
2814 2890
2814 2891
2814 2896
2815 2819
2815 2828
2815 2833
2815 2841
2815 2844
2815 2848
2815 2852
2815 2857
2815 2868
2815 2869
2815 2872
2815 2877
2815 2893
2815 2894
2815 2897
2815 2899
2816 2820
2816 2826
2816 2830
2816 2858
2816 2875
2816 2878
2816 2883
2816 2885
2817 2825
2817 2857
2817 2861
2817 2867
2817 2874
2817 2876
2817 2877
2817 2889
2817 2896
2817 2897
2818 2823
2818 2846
2818 2854
2818 2856
2818 2873
2818 2884
2818 2890
2818 2895
2818 2896
2819 2820
2819 2821
2819 2822
2819 2827
2819 2828
2819 2852
2819 2854
2819 2860
2820 2832
2820 2835
2820 2842
2820 2853
2820 2858
2820 2865
2820 2872
2820 2899
2821 2850
2821 2852
2821 2864
2821 2872
2821 2879
2821 2880
2821 2891
2821 2893
2821 4382
2822 2830
2822 2835
2822 2838
2822 2842
2822 2869
2822 2871
2822 2883
2822 2885
2822 3068
2823 2836
2823 2838
2823 2840
2823 2853
2823 2869
2823 2880
2823 2881
2823 2883
2823 2896
2823 4775
2824 2846
2824 2847
2824 2849
2824 2853
2824 2866
2824 2876
2824 2878
2824 2884
2824 2891
2825 2866
2825 2870
2825 2887
2825 2896
2825 4325
2826 2829
2826 2837
2826 2846
2826 2857
2826 2858
2826 2859
2826 2875
2826 2877
2826 2882
2826 2895
2827 2828
2827 2841
2827 2849
2827 2886
2827 2894
2828 2837
2828 2844
2828 2850
2828 2864
2828 2889
2828 2892
2829 2831
2829 2833
2829 2897
2830 2832
2830 2835
2830 2849
2830 2854
2830 2856
2830 2863
2830 2874
2830 2880
2830 2883
2830 2889
2830 2893
2830 3786
2831 2843
2831 2844
2831 2848
2831 2857
2831 2865
2831 2866
2831 2879
2831 2880
2831 2884
2831 2885
2831 2889
2831 2897
2832 2846
2832 2852
2832 2861
2832 2864
2832 2870
2832 2880
2832 2883
2832 2888
2833 2834
2833 2844
2833 2849
2833 2850
2833 2853
2833 2857
2833 2870
2833 2874
2833 2882
2833 2890
2833 2894
2833 2897
2834 2872
2834 2881
2834 2890
2834 2899
2835 2839
2835 2847
2835 2848
2835 2849
2835 2858
2835 2872
2835 2885
2835 2896
2836 2840
2836 2848
2836 2857
2836 2871
2836 2872
2837 2846
2837 2848
2837 2867
2837 2885
2837 2891
2837 2894
2837 2895
2838 2842
2838 2843
2838 2844
2838 2847
2838 2849
2838 2854
2838 2865
2838 2886
2838 2891
2838 2892
2838 3298
2839 2845
2839 2847
2839 2870
2839 2872
2839 2875
2839 2877
2840 2842
2840 2846
2840 2847
2840 2850
2840 2851
2840 2852
2840 2856
2840 2865
2840 2866
2840 2875
2840 2887
2840 2891
2840 2898
2841 2851
2841 2858
2841 2860
2841 2862
2841 2878
2841 2882
2841 2893
2842 2856
2842 2864
2842 2866
2842 2873
2842 2874
2842 2896
2842 2899
2843 2844
2843 2850
2843 2859
2843 2862
2843 2864
2843 2872
2843 2890
2844 2864
2844 2865
2844 2870
2844 2877
2844 2879
2844 2893
2844 2896
2845 2851
2845 2864
2845 2869
2845 2871
2845 2877
2845 2880
2845 2881
2846 2847
2846 2848
2846 2857
2846 2863
2846 2889
2846 2895
2846 2899
2846 4142
2847 2860
2847 2863
2847 2869
2847 2877
2847 2884
2847 2887
2848 2856
2848 2861
2848 2867
2848 2876
2848 2884
2848 2888
2848 2891
2849 2868
2849 2893
2849 2894
2849 2899
2849 3485
2850 2858
2850 2870
2850 2893
2850 2899
2851 2854
2851 2865
2851 2868
2851 2870
2851 2874
2851 2878
2851 2887
2851 4231
2852 2855
2852 2859
2852 2862
2852 2870
2852 2874
2852 2881
2852 2885
2852 2895
2853 2871
2853 2874
2853 2898
2854 2874
2854 2892
2854 2896
2854 2898
2855 2874
2855 2893
2855 2898
2856 2872
2856 2877
2856 2887
2856 2894
2856 3073
2857 2859
2857 2860
2857 2871
2857 2873
2857 2880
2857 2887
2859 2862
2859 2872
2859 2886
2859 2889
2860 2872
2860 2874
2860 2898
2861 2863
2861 2866
2861 2873
2861 2899
2862 2866
2862 2891
2863 2875
2863 2883
2863 2890
2864 2876
2864 2878
2864 2883
2864 2899
2865 2872
2865 2875
2865 2885
2865 2889
2865 4515
2866 2870
2866 2881
2867 2885
2867 2892
2867 2894
2868 2872
2868 2890
2869 2871
2869 2882
2869 2884
2869 2897
2869 3866
2870 2872
2870 2896
2870 2898
2870 3962
2871 2880
2871 2882
2871 2883
2871 2884
2871 2896
2872 2899
2873 2878
2873 2889
2874 2876
2874 2879
2874 2883
2874 2887
2875 2885
2875 2889
2876 2879
2876 2881
2876 2883
2876 2889
2877 2880
2877 2895
2877 2899
2878 2888
2878 2892
2878 2895
2878 2898
2880 2883
2881 2889
2881 2895
2881 3942
2882 2886
2882 2891
2882 2896
2882 2897
2882 4093
2883 2884
2883 2892
2885 2887
2886 2887
2886 2894
2886 3653
2887 2895
2887 2897
2887 3461
2888 3739
2889 2897
2890 2894
2890 2897
2891 4857
2892 2894
2893 2898
2894 4214
2895 3746
2898 2899
2900 2906
2900 2908
2900 2909
2900 2923
2900 2929
2900 2932
2900 2937
2900 2944
2900 2949
2900 2966
2900 2988
2901 2905
2901 2916
2901 2924
2901 2927
2901 2932
2901 2947
2901 2950
2901 2953
2901 2961
2901 2990
2901 2995
2902 2909
2902 2910
2902 2913
2902 2935
2902 2944
2902 2953
2902 2961
2902 2987
2902 2992
2903 2918
2903 2928
2903 2930
2903 2958
2903 2965
2903 2979
2903 2982
2903 2984
2903 2991
2904 2905
2904 2915
2904 2922
2904 2930
2904 2972
2904 2979
2904 2990
2904 2993
2905 2910
2905 2913
2905 2926
2905 2930
2905 2941
2905 2969
2905 2978
2905 2979
2905 3133
2906 2911
2906 2930
2906 2941
2906 2942
2906 2946
2906 2951
2906 2954
2906 2969
2906 2972
2906 2976
2906 2988
2906 2989
2906 2992
2906 2995
2907 2918
2907 2925
2907 2926
2907 2939
2907 2953
2907 2963
2907 2966
2907 2970
2907 2971
2908 2911
2908 2922
2908 2928
2908 2930
2908 2937
2908 2939
2908 2942
2908 2943
2908 2974
2908 2983
2908 2993
2908 2994
2908 2995
2909 2916
2909 2960
2909 2990
2910 2911
2910 2955
2910 2956
2910 2962
2910 2969
2910 2974
2910 2989
2910 2991
2911 2932
2911 2985
2911 2988
2912 2913
2912 2932
2912 2945
2912 2954
2912 2980
2912 2992
2912 2994
2913 2922
2913 2942
2913 2966
2913 2977
2913 2999
2914 2917
2914 2940
2914 2942
2914 2959
2914 2966
2914 2974
2914 2989
2915 2923
2915 2943
2915 2966
2915 2968
2915 2985
2916 2920
2916 2923
2916 2927
2916 2952
2916 2953
2916 2966
2916 2977
2916 2979
2916 2997
2917 2927
2917 2953
2917 2958
2917 2969
2917 2970
2917 2975
2918 2922
2918 2932
2918 2934
2918 2941
2918 2946
2918 2983
2918 2984
2918 2986
2918 2996
2918 2998
2919 2923
2919 2930
2919 2932
2919 2934
2919 2952
2919 2957
2919 2971
2919 2976
2919 2980
2919 2996
2919 2998
2920 2924
2920 2926
2920 2950
2920 2954
2920 2975
2920 2976
2920 2983
2920 2988
2920 2995
2920 2999
2921 2934
2921 2961
2921 2967
2921 2978
2921 2994
2921 2997
2921 3576
2922 2956
2922 2965
2922 2973
2922 2978
2922 2999
2922 3114
2923 2927
2923 2935
2923 2962
2923 2963
2923 2964
2923 2965
2923 2968
2923 2982
2923 2990
2924 2930
2924 2939
2924 2940
2924 2951
2924 2960
2924 2967
2924 2970
2924 2972
2924 2975
2924 3718
2925 2932
2925 2948
2925 2954
2925 2962
2925 2964
2925 2968
2925 2986
2925 2996
2926 2939
2926 2943
2926 2955
2926 2957
2926 2963
2926 2975
2927 2929
2927 2938
2927 2948
2927 2951
2927 2952
2927 2975
2927 2976
2927 2986
2927 2990
2927 2997
2928 2955
2928 2964
2928 2973
2928 2977
2928 2986
2928 2987
2928 2999
2929 2933
2929 2952
2929 2957
2929 2969
2929 2983
2929 2993
2930 2933
2930 2934
2930 2943
2930 2963
2930 2973
2930 2975
2930 2985
2930 2986
2930 2997
2930 2998
2931 2933
2931 2943
2931 2953
2931 2980
2931 2986
2931 2988
2931 2999
2932 2941
2932 2954
2932 2979
2932 2990
2932 3283
2933 2943
2933 2953
2933 2965
2933 2975
2933 2987
2933 2990
2933 2993
2934 2943
2934 2949
2934 2952
2934 2959
2934 2965
2934 2986
2934 2991
2935 2937
2935 2959
2935 2977
2936 2939
2936 2940
2936 2950
2936 2954
2936 2956
2936 2963
2936 2969
2936 2972
2936 2987
2936 3015
2937 2940
2937 2941
2937 2973
2937 2975
2937 2979
2938 2952
2938 2966
2938 2968
2938 2988
2938 2996
2938 2998
2939 2967
2939 2968
2939 2971
2939 2980
2939 2990
2940 2955
2940 2963
2940 2976
2940 2978
2940 2982
2940 2992
2940 2997
2941 2951
2941 2953
2941 2958
2941 2962
2942 2954
2942 2961
2943 2947
2943 2953
2943 2958
2943 4934
2944 2948
2944 2960
2944 2970
2944 2980
2944 2999
2945 2994
2945 2995
2946 2967
2946 2972
2946 2998
2947 2949
2947 2965
2947 2966
2947 2972
2947 2991
2947 2993
2947 2998
2948 2954
2948 2961
2948 2970
2948 2983
2948 2984
2949 2963
2949 2972
2949 2973
2949 2976
2949 2979
2949 2982
2949 2985
2949 2988
2949 2991
2949 2993
2950 2961
2950 2982
2950 2997
2951 2952
2951 2982
2951 2989
2952 2954
2952 2960
2952 2966
2952 2976
2953 2989
2953 2996
2953 2998
2953 2999
2954 2959
2954 2962
2954 2963
2955 2958
2955 2960
2955 2965
2955 2990
2955 2996
2956 2970
2956 2971
2956 2981
2956 2990
2957 2984
2957 2985
2957 2988
2957 3565
2958 2974
2958 2985
2958 2992
2959 2974
2959 2989
2959 2992
2960 2968
2960 2972
2960 2994
2961 2991
2961 3346
2962 2966
2962 2979
2962 2989
2962 2995
2962 3689
2963 2973
2963 2976
2963 2978
2963 2992
2964 2965
2964 2968
2964 2971
2964 2974
2964 2985
2964 2986
2964 2991
2965 2967
2965 2975
2965 2977
2965 2991
2965 2997
2966 2981
2966 2993
2966 2996
2966 2998
2966 3352
2967 2968
2967 2977
2967 2983
2967 2986
2967 2998
2968 2973
2968 2979
2968 2982
2968 2998
2969 2970
2969 2974
2969 2995
2970 2983
2970 2990
2970 2995
2970 2997
2971 2977
2971 2985
2971 2992
2971 2993
2971 2996
2971 2998
2972 2987
2972 2989
2972 2991
2972 2992
2973 2976
2974 2976
2974 2980
2974 2982
2975 2976
2975 2982
2976 2984
2976 2988
2976 2996
2976 3290
2977 2978
2977 2997
2977 3565
2978 2988
2978 2991
2978 2994
2979 2994
2979 2995
2979 2999
2980 2984
2981 2982
2981 2985
2981 2987
2981 2997
2981 2999
2982 2990
2982 2995
2983 2986
2983 2988
2984 2992
2984 2993
2985 2989
2985 2991
2986 2991
2987 2996
2988 2990
2988 2991
2989 2993
2990 2992
2990 2997
2992 3968
2993 4304
2994 2996
2996 4701
3000 3001
3000 3003
3000 3005
3000 3008
3000 3009
3000 3018
3000 3023
3000 3032
3000 3053
3000 3059
3000 3080
3000 3081
3000 3087
3000 3096
3000 3564
3001 3008
3001 3020
3001 3021
3001 3026
3001 3029
3001 3039
3001 3046
3001 3060
3001 3064
3001 3071
3001 3072
3001 3073
3001 3082
3001 3092
3001 3098
3002 3026
3002 3030
3002 3031
3002 3034
3002 3046
3002 3050
3002 3065
3002 3069
3002 3071
3002 3085
3002 3989
3003 3027
3003 3031
3003 3044
3003 3083
3003 3408
3004 3009
3004 3020
3004 3025
3004 3034
3004 3043
3004 3049
3004 3054
3004 3062
3004 3065
3004 3066
3004 3070
3004 3087
3005 3023
3005 3024
3005 3036
3005 3060
3005 3061
3005 3074
3005 3075
3005 3088
3005 3089
3005 3092
3005 3098
3006 3010
3006 3013
3006 3017
3006 3020
3006 3034
3006 3038
3006 3040
3006 3041
3006 3048
3006 3051
3006 3057
3006 3061
3006 3087
3006 3093
3006 3094
3007 3009
3007 3012
3007 3014
3007 3022
3007 3023
3007 3025
3007 3030
3007 3041
3007 3065
3007 3074
3007 3077
3007 3079
3007 3082
3007 3085
3007 3086
3007 3095
3008 3019
3008 3044
3008 3051
3008 3059
3008 3082
3008 3085
3008 3097
3009 3021
3009 3030
3009 3031
3009 3055
3009 3056
3009 3080
3009 3085
3009 3087
3010 3017
3010 3024
3010 3042
3010 3056
3010 3061
3010 3088
3011 3014
3011 3019
3011 3027
3011 3028
3011 3050
3011 3053
3011 3062
3011 3065
3011 3078
3011 3081
3011 3088
3011 3097
3012 3030
3012 3055
3012 3070
3012 3076
3012 3080
3012 3084
3012 3089
3013 3016
3013 3039
3013 3041
3013 3068
3013 3072
3013 3073
3013 3078
3013 3098
3014 3030
3014 3045
3014 3056
3014 3062
3014 3064
3014 3066
3014 3072
3014 3075
3014 3080
3015 3023
3015 3027
3015 3028
3015 3042
3015 3050
3015 3057
3015 3058
3015 3063
3015 3086
3016 3049
3016 3063
3016 3075
3016 3076
3016 3078
3016 3086
3016 3092
3017 3023
3017 3027
3017 3035
3017 3037
3017 3048
3017 3056
3017 3076
3017 3078
3017 3080
3017 3097
3018 3023
3018 3027
3018 3031
3018 3036
3018 3043
3018 3077
3018 3089
3018 3093
3019 3025
3019 3027
3019 3033
3019 3035
3019 3054
3020 3061
3020 3064
3020 3066
3020 3089
3020 3097
3020 3098
3021 3028
3021 3031
3021 3033
3021 3034
3021 3035
3021 3043
3021 3054
3021 3064
3022 3027
3022 3031
3022 3056
3022 3060
3022 3080
3022 3081
3022 3085
3022 3087
3023 3029
3023 3034
3023 3042
3023 3046
3023 3055
3023 3063
3023 3086
3024 3050
3024 3058
3024 3071
3024 3072
3024 3076
3024 3080
3024 3094
3025 3048
3025 3065
3025 4915
3026 3056
3026 3064
3026 3088
3026 3090
3027 3040
3027 3047
3027 3053
3027 3058
3027 3089
3027 3096
3028 3052
3028 3053
3028 3069
3028 3080
3028 3094
3029 3054
3029 3073
3029 3082
3029 3091
3030 3036
3030 3039
3030 3047
3030 3049
3030 3062
3030 3071
3030 3079
3030 3093
3030 3098
3031 3035
3031 3041
3031 3044
3031 3045
3031 3065
3031 3067
3031 3072
3031 3074
3031 3084
3031 3091
3031 3092
3031 3093
3031 3096
3032 3034
3032 3038
3032 3061
3032 3072
3032 3078
3032 3080
3033 3039
3033 3050
3033 3051
3033 3052
3033 3053
3033 3087
3033 3093
3034 3041
3034 3052
3034 3082
3034 3089
3035 3040
3035 3046
3035 3059
3035 3067
3035 3090
3035 3407
3036 3038
3036 3048
3036 3063
3036 3068
3036 3070
3036 3082
3036 3091
3037 3040
3037 3049
3037 3057
3037 3080
3037 3091
3037 3096
3038 3046
3038 3055
3038 3058
3038 3069
3038 3079
3038 3084
3038 3089
3038 3094
3039 3069
3039 3071
3039 3089
3039 3098
3040 3041
3040 3042
3040 3059
3040 3066
3040 3071
3040 3082
3040 3097
3041 3063
3041 3084
3041 3087
3041 3088
3041 3091
3041 3096
3042 3047
3042 3049
3042 3055
3042 3058
3042 3060
3042 3065
3042 3068
3042 3070
3042 3078
3042 3096
3043 3053
3043 3058
3044 3045
3044 3047
3044 3051
3044 3060
3044 3061
3044 3076
3044 3081
3044 3090
3044 3556
3045 3050
3045 3052
3045 3056
3045 3060
3045 3088
3046 3047
3046 3052
3046 3079
3046 3089
3046 3091
3046 3093
3047 3057
3047 3060
3047 3075
3047 3087
3047 3088
3047 3091
3047 3095
3047 4690
3047 4751
3048 3062
3048 3076
3049 3077
3049 3080
3049 3097
3050 3051
3050 3064
3050 3087
3050 3091
3050 3092
3050 3097
3051 3058
3051 3060
3051 3076
3052 3072
3052 3090
3053 3062
3053 3065
3053 3069
3053 3071
3053 3072
3053 3086
3053 3091
3053 3094
3054 3056
3054 3057
3054 3068
3054 3071
3054 3072
3054 3081
3054 3083
3054 3088
3054 3089
3054 3093
3054 3095
3055 3056
3055 3085
3055 3094
3056 3079
3057 3062
3057 3068
3057 3070
3057 3072
3057 3097
3057 4984
3058 3063
3058 3086
3058 3087
3058 3279
3059 3072
3059 3095
3060 3067
3060 3073
3060 3086
3060 3095
3060 3097
3061 3095
3061 3097
3061 3098
3062 3068
3062 3076
3062 3096
3063 3091
3064 3072
3064 3074
3064 3089
3065 3069
3065 3095
3065 3096
3065 3194
3066 3081
3066 3083
3066 3084
3066 3085
3066 3089
3066 3091
3066 3093
3066 3099
3067 3082
3068 3084
3068 3088
3068 3090
3068 3094
3069 3078
3069 3083
3069 3085
3070 3086
3070 3088
3071 3073
3071 3078
3071 3087
3071 3091
3072 3074
3072 3078
3072 3080
3072 3084
3072 3089
3073 3078
3073 3088
3074 3076
3074 3077
3074 3090
3074 3094
3074 3097
3074 3099
3075 3076
3075 3083
3076 3079
3076 3462
3077 3078
3077 3079
3077 3082
3078 3083
3078 3096
3079 3084
3079 3092
3079 4962
3080 3092
3080 3093
3080 3094
3080 3096
3081 3089
3081 3092
3082 3089
3083 3096
3083 3099
3085 3088
3085 3090
3085 3096
3086 3087
3087 3089
3087 3097
3089 3095
3091 3093
3092 3098
3094 3095
3094 4885
3095 3098
3100 3121
3100 3135
3100 3136
3100 3141
3100 3143
3100 3155
3100 3168
3100 3173
3100 3179
3100 3182
3101 3134
3101 3137
3101 3174
3101 3176
3101 3179
3101 3182
3101 3194
3102 3123
3102 3135
3102 3144
3102 3150
3102 3162
3102 3172
3102 3184
3102 3185
3102 3191
3102 3192
3102 3199
3103 3117
3103 3118
3103 3119
3103 3130
3103 3134
3103 3145
3103 3146
3103 3148
3103 3165
3103 3172
3103 3176
3103 3177
3103 3182
3103 3195
3104 3131
3104 3133
3104 3139
3104 3153
3104 3154
3104 3168
3104 3169
3104 3170
3104 3188
3105 3117
3105 3125
3105 3133
3105 3134
3105 3139
3105 3143
3105 3160
3105 3182
3105 3192
3105 4260
3106 3114
3106 3135
3106 3136
3106 3166
3106 3189
3107 3162
3107 3163
3107 4906
3108 3119
3108 3124
3108 3140
3108 3150
3108 3159
3108 3174
3108 3184
3108 3189
3108 3193
3108 3197
3108 3199
3109 3134
3109 3140
3109 3143
3109 3146
3109 3154
3109 3162
3109 3177
3109 3188
3110 3127
3110 3130
3110 3145
3110 3167
3110 3177
3110 3178
3110 3185
3110 3187
3110 3192
3110 3198
3111 3115
3111 3116
3111 3130
3111 3139
3111 3141
3111 3170
3111 3175
3111 3177
3111 3180
3111 3182
3111 3186
3111 3197
3112 3114
3112 3136
3112 3165
3112 3169
3112 3171
3112 3177
3113 3117
3113 3149
3113 3167
3113 3189
3113 3192
3114 3118
3114 3122
3114 3127
3114 3138
3114 3141
3114 3145
3114 3152
3114 3155
3114 3156
3114 3172
3114 3174
3114 3180
3114 3184
3114 3197
3115 3122
3115 3129
3115 3130
3115 3145
3115 3149
3115 3151
3115 3159
3115 3168
3115 3176
3115 3180
3115 3189
3116 3120
3116 3131
3116 3133
3116 3137
3116 3140
3116 3141
3116 3155
3116 3158
3116 3186
3117 3120
3117 3135
3117 3141
3117 3148
3117 3152
3117 3169
3117 3183
3117 3193
3117 4828
3118 3125
3118 3129
3118 3138
3118 3169
3118 3172
3119 3120
3119 3124
3119 3125
3119 3131
3119 3133
3119 3136
3119 3154
3119 3157
3119 3160
3119 3172
3119 3174
3119 3188
3119 3191
3119 3197
3120 3137
3120 3139
3120 3140
3120 3152
3120 3157
3120 3167
3120 3174
3120 3190
3120 3192
3121 3123
3121 3157
3121 3160
3121 3167
3121 3174
3121 3177
3121 3179
3121 3181
3121 3197
3122 3126
3122 3139
3122 3143
3122 3144
3122 3161
3122 3182
3122 3192
3122 3197
3122 3198
3123 3126
3123 3184
3123 3189
3123 3192
3123 3194
3123 4953
3124 3133
3124 3138
3124 3142
3124 3157
3124 3168
3124 3170
3124 3184
3125 3159
3125 3167
3125 3187
3125 3189
3126 3148
3126 3150
3126 3167
3126 3172
3126 3183
3126 3187
3126 3189
3126 3192
3126 3193
3127 3133
3127 3134
3127 3137
3127 3149
3127 3163
3127 3170
3127 3175
3127 3179
3127 3188
3127 3193
3127 3199
3127 3267
3127 3659
3128 3145
3128 3152
3128 3157
3128 3162
3128 3173
3128 3179
3128 3182
3129 3165
3129 3176
3129 3183
3129 3187
3129 3192
3130 3134
3130 3136
3130 3139
3130 3162
3130 3167
3130 3173
3130 3189
3131 3133
3131 3137
3131 3145
3131 3154
3131 3162
3131 3188
3132 3135
3132 3144
3132 3158
3132 3180
3132 3187
3132 3190
3132 3197
3133 3142
3133 3145
3133 3150
3133 3155
3133 3171
3133 3184
3134 3135
3134 3137
3134 3141
3134 3152
3134 3155
3134 3183
3134 3198
3134 3199
3135 3140
3135 3148
3135 3156
3135 3166
3136 3137
3136 3151
3136 3154
3136 3157
3136 3158
3136 3169
3136 3177
3136 3189
3136 3191
3136 4363
3137 3141
3137 3142
3137 3179
3137 3188
3137 3199
3138 3155
3138 3158
3138 3159
3138 3185
3139 3157
3139 3164
3139 3165
3139 3177
3139 3178
3139 3189
3139 3194
3139 3197
3140 3151
3140 3155
3140 3165
3140 3182
3140 3195
3140 3199
3141 3162
3141 3172
3141 3181
3141 3182
3141 3185
3142 3146
3142 3148
3142 3154
3142 3162
3142 3165
3142 3168
3142 3172
3142 3174
3142 3180
3142 3186
3142 3190
3142 3192
3143 3144
3143 3162
3143 3163
3143 3168
3143 3184
3143 3186
3143 3188
3144 3179
3145 3146
3145 3152
3145 3153
3145 3157
3145 3188
3146 3168
3146 3175
3146 3193
3146 4748
3147 3157
3147 3160
3147 3162
3147 3181
3147 3183
3147 3190
3147 3191
3147 3197
3147 4501
3147 4962
3148 3164
3148 3169
3148 3185
3148 3189
3148 3191
3148 3194
3149 3163
3149 3166
3149 3171
3149 3172
3149 3174
3149 3187
3149 3188
3149 3193
3150 3161
3150 3164
3150 3165
3150 3177
3150 3181
3151 3157
3151 3170
3151 3172
3151 3177
3151 3182
3151 3195
3152 3180
3152 3186
3152 3484
3153 3157
3153 3165
3153 3167
3153 3169
3153 3180
3153 3186
3153 3194
3154 3164
3154 3182
3154 3183
3155 3156
3155 3158
3155 3168
3155 3171
3155 3606
3156 3159
3156 3163
3156 3171
3156 3176
3156 3194
3156 3195
3156 3196
3157 3165
3157 3175
3157 3178
3157 3185
3157 3194
3157 3199
3158 3170
3158 3184
3158 3987
3159 3161
3159 3164
3159 3175
3159 3190
3159 3191
3159 3197
3160 3165
3160 3167
3160 3196
3160 3197
3161 3171
3161 3172
3161 3174
3161 3190
3161 3192
3162 3171
3162 3174
3162 3180
3162 3182
3162 3187
3162 3189
3162 3190
3162 3199
3163 3165
3163 3193
3163 3196
3164 3170
3164 3181
3164 3192
3165 3166
3165 3184
3165 3193
3165 4042
3166 3181
3166 3197
3167 3193
3167 3199
3168 3175
3168 3182
3168 3187
3168 3191
3168 3195
3169 3185
3169 3199
3170 3185
3170 3186
3170 3189
3171 3175
3171 3192
3171 3195
3172 3189
3172 3191
3172 3196
3173 3180
3174 3175
3174 3180
3175 3183
3175 3186
3175 3196
3175 3910
3176 3178
3176 3180
3177 3188
3177 3196
3178 3195
3178 3199
3179 3180
3180 3183
3180 3199
3181 3183
3181 3187
3181 4316
3182 3192
3182 3194
3183 3191
3183 3195
3183 3197
3184 3192
3184 3193
3185 3193
3186 3191
3186 3195
3187 3189
3187 3196
3187 3198
3190 3191
3191 3196
3191 4139
3192 3198
3192 4371
3199 3598
3200 3205
3200 3209
3200 3214
3200 3215
3200 3220
3200 3228
3200 3234
3200 3242
3200 3253
3200 3256
3200 3263
3200 3268
3200 3296
3201 3203
3201 3219
3201 3223
3201 3229
3201 3237
3201 3251
3201 3258
3201 3263
3201 3264
3201 3277
3201 3290
3202 3211
3202 3214
3202 3217
3202 3228
3202 3245
3202 3270
3202 3276
3202 3277
3202 3280
3202 3281
3202 3285
3202 3291
3202 3292
3202 3298
3203 3220
3203 3228
3203 3236
3203 3237
3203 3249
3203 3257
3203 3279
3203 3291
3204 3222
3204 3223
3204 3240
3204 3246
3204 3249
3204 3252
3204 3253
3204 3258
3204 3265
3205 3210
3205 3215
3205 3225
3205 3245
3205 3251
3205 3262
3205 3265
3205 3281
3205 3297
3206 3208
3206 3217
3206 3233
3206 3237
3206 3239
3206 3240
3206 3245
3206 3264
3206 3267
3206 3269
3206 3291
3206 3293
3206 4617
3207 3215
3207 3218
3207 3230
3207 3232
3207 3234
3207 3242
3207 3246
3207 3254
3207 3255
3207 3256
3207 3261
3207 3292
3208 3214
3208 3215
3208 3218
3208 3260
3208 3268
3208 3286
3209 3218
3209 3224
3209 3229
3209 3250
3209 3263
3209 3266
3209 3277
3209 4176
3210 3211
3210 3216
3210 3245
3210 3272
3210 3297
3211 3215
3211 3222
3211 3225
3211 3227
3211 3229
3211 3231
3211 3234
3211 3239
3211 3251
3211 3254
3211 3295
3212 3218
3212 3220
3212 3227
3212 3240
3212 3257
3212 3278
3212 3293
3212 3296
3212 4976
3213 3226
3213 3263
3213 3265
3213 3277
3213 3279
3213 3285
3213 3291
3213 3294
3213 3297
3214 3219
3214 3224
3214 3227
3214 3236
3214 3243
3214 3245
3214 3253
3214 3254
3214 3264
3214 3283
3214 3285
3214 3298
3215 3222
3215 3227
3215 3235
3215 3240
3215 3263
3215 3290
3215 3291
3215 3299
3216 3222
3216 3225
3216 3242
3216 3244
3216 3255
3216 3259
3216 3274
3216 3287
3216 3296
3216 3297
3216 4102
3217 3250
3217 3253
3217 3255
3217 3261
3217 3271
3217 3292
3218 3219
3218 3234
3218 3244
3218 3247
3218 3260
3218 3270
3219 3248
3219 3253
3219 3257
3219 3262
3219 3274
3220 3227
3220 3248
3220 3272
3220 3276
3220 3282
3220 3483
3221 3232
3221 3251
3221 3252
3221 3254
3221 3278
3221 3292
3222 3242
3222 3243
3222 3244
3222 3255
3222 3257
3222 3278
3222 3292
3222 3297
3222 3299
3223 3263
3223 3279
3223 3290
3223 3295
3224 3231
3224 3233
3224 3235
3224 3243
3224 3265
3224 3271
3224 3280
3224 3291
3224 3500
3225 3231
3225 3248
3225 3251
3225 3260
3225 3262
3225 3280
3225 3296
3226 3251
3226 3256
3226 3265
3226 3280
3226 3297
3227 3230
3227 3231
3227 3233
3227 3250
3227 3252
3227 3288
3227 4317
3228 3230
3228 3231
3228 3232
3228 3233
3228 3248
3228 3251
3228 3264
3228 3270
3228 3277
3228 3278
3228 3281
3228 3293
3228 3297
3229 3235
3229 3245
3229 3254
3229 3265
3229 3274
3230 3241
3230 3259
3230 3285
3230 3292
3230 3295
3230 3299
3231 3240
3231 3250
3231 3251
3231 3255
3231 3270
3231 3274
3231 3282
3231 3287
3231 3289
3232 3239
3232 3241
3232 3246
3232 3256
3232 3261
3232 3266
3232 3286
3233 3235
3233 3240
3233 3273
3233 3295
3233 3296
3234 3235
3234 3238
3234 3241
3234 3242
3234 3258
3234 3261
3234 3262
3234 3265
3234 3274
3234 3277
3234 3285
3234 3289
3235 3255
3235 3258
3235 3271
3235 3295
3236 3249
3236 3260
3236 3270
3236 3273
3236 3295
3237 3254
3237 3258
3237 3266
3237 3267
3237 3271
3237 3282
3237 3285
3237 3292
3238 3242
3238 3244
3238 3252
3238 3267
3238 3271
3238 3272
3238 3275
3239 3242
3239 3244
3239 3261
3239 3270
3239 3272
3239 3286
3240 3254
3240 3259
3240 3263
3240 3264
3240 3272
3240 3282
3240 3286
3240 3292
3240 3599
3240 4832
3241 3243
3241 3264
3241 3286
3241 3287
3241 3297
3242 3247
3242 3248
3242 3255
3242 3256
3242 3274
3242 3281
3242 3285
3242 3296
3243 3254
3243 3255
3243 3261
3243 3262
3243 3281
3243 3291
3243 3299
3244 3248
3244 3257
3244 3258
3244 3265
3244 3283
3244 3296
3244 3299
3245 3253
3245 3256
3245 3260
3245 3280
3245 4589
3246 3267
3246 3269
3246 3271
3246 3277
3246 3283
3246 3295
3247 3264
3247 3288
3247 3292
3247 3299
3248 3263
3248 3270
3248 3273
3248 3276
3248 3283
3248 3297
3248 3748
3249 3263
3249 3291
3249 3292
3250 3258
3250 3262
3250 3271
3250 3284
3250 3294
3251 3263
3251 3292
3251 3294
3252 3253
3252 3258
3252 3261
3252 3278
3252 3282
3252 3295
3252 3296
3252 3298
3253 3263
3254 3260
3254 3266
3254 3271
3254 3279
3254 3282
3254 3290
3254 3292
3254 3296
3255 3259
3255 3263
3255 3267
3255 3277
3255 3279
3256 3259
3256 3277
3256 3282
3257 3261
3257 3286
3257 4513
3258 3263
3258 3266
3258 3561
3259 3264
3259 3269
3259 3296
3259 3299
3260 3276
3260 3279
3260 3291
3260 3372
3261 3278
3262 3280
3262 3282
3262 3287
3262 3293
3262 3294
3262 3299
3263 3268
3263 3271
3263 3272
3263 3286
3263 3299
3264 3267
3264 3277
3264 3279
3264 3289
3265 3269
3265 3294
3265 3299
3265 4825
3266 3271
3266 3278
3266 3281
3266 3754
3267 3270
3267 3274
3267 3281
3268 3269
3268 3291
3269 3270
3269 3274
3269 3282
3269 3291
3270 3275
3270 3276
3270 3278
3270 3286
3270 3296
3271 3286
3272 3274
3272 3276
3272 4760
3273 3292
3273 3293
3273 3297
3273 4011
3274 3276
3274 3279
3274 3293
3274 3381
3274 4425
3275 3289
3275 3298
3276 3290
3276 3292
3277 3283
3278 3297
3279 3282
3279 3289
3279 3299
3280 3281
3281 3296
3282 3295
3282 3487
3284 3291
3285 3299
3286 3289
3286 3298
3287 3297
3289 3290
3289 3296
3292 3294
3292 3299
3293 3296
3296 3297
3300 3309
3300 3323
3300 3347
3300 3358
3300 3388
3301 3305
3301 3331
3301 3339
3301 3340
3301 3346
3301 3361
3301 3377
3301 3385
3301 3392
3301 3396
3302 3311
3302 3313
3302 3341
3302 3345
3302 3367
3302 3391
3303 3310
3303 3313
3303 3335
3303 3340
3303 3359
3303 3368
3303 3371
3303 3374
3303 3380
3303 3395
3304 3306
3304 3325
3304 3330
3304 3341
3304 3345
3304 3352
3304 3357
3304 3361
3305 3309
3305 3310
3305 3317
3305 3323
3305 3327
3305 3335
3305 3337
3305 3342
3305 3343
3305 3345
3305 3351
3305 3356
3305 3370
3305 3372
3305 3377
3305 3379
3305 3391
3306 3309
3306 3318
3306 3344
3306 3359
3306 3380
3306 3389
3307 3311
3307 3324
3307 3341
3307 3345
3307 3350
3307 3355
3307 3377
3307 3385
3308 3309
3308 3321
3308 3353
3308 3364
3308 3380
3308 3390
3308 3398
3308 3399
3309 3315
3309 3322
3309 3323
3309 3332
3309 3381
3309 3383
3309 3391
3310 3317
3310 3319
3310 3320
3310 3338
3310 3341
3310 3353
3310 3363
3310 3374
3310 3393
3311 3315
3311 3316
3311 3318
3311 3341
3311 3351
3311 3356
3311 3361
3311 3362
3311 3368
3311 3376
3311 3378
3311 3387
3311 3393
3311 3553
3312 3314
3312 3316
3312 3326
3312 3347
3312 3356
3312 3359
3312 3368
3312 3370
3312 3387
3312 3399
3313 3316
3313 3322
3313 3351
3313 3372
3313 3380
3313 3381
3313 3395
3314 3317
3314 3326
3314 3341
3314 3360
3314 3371
3314 3392
3315 3317
3315 3339
3315 3342
3315 3354
3315 3359
3315 3371
3315 3374
3315 4267
3316 3333
3316 3336
3316 3341
3316 3344
3316 3374
3316 3375
3316 3397
3317 3339
3317 3348
3317 3353
3317 3361
3317 3363
3317 3369
3317 3377
3317 3387
3317 3395
3318 3337
3318 3339
3318 3353
3318 3384
3318 3393
3319 3324
3319 3331
3319 3350
3319 3353
3319 3354
3319 3358
3319 3369
3319 3382
3320 3340
3320 3353
3320 3358
3320 3362
3320 3368
3320 3381
3321 3338
3321 3347
3321 3350
3321 3357
3321 3358
3321 3371
3321 3372
3321 3373
3321 3374
3321 3379
3321 3381
3321 3383
3321 3388
3322 3332
3322 3347
3322 3356
3322 3359
3322 3360
3322 3362
3322 3375
3322 3389
3322 3391
3322 3398
3323 3328
3323 3348
3323 3354
3323 3363
3323 3374
3324 3330
3324 3355
3324 3356
3324 3357
3324 3358
3324 3393
3325 3332
3325 3354
3325 3360
3325 3380
3325 3385
3325 3390
3326 3327
3326 3330
3326 3351
3326 3353
3326 3359
3326 3377
3326 3389
3326 3390
3327 3333
3327 3345
3327 3357
3327 3362
3327 3369
3327 3386
3327 3389
3327 3392
3327 3399
3328 3330
3328 3346
3328 3352
3328 3368
3328 3371
3328 3389
3328 3390
3328 3391
3328 3395
3329 3343
3329 3359
3329 3363
3329 3379
3329 3391
3329 3486
3330 3344
3330 3347
3330 3359
3330 3362
3330 3369
3331 3334
3331 3338
3331 3375
3331 3376
3331 3377
3331 3378
3332 3357
3332 3365
3332 3367
3332 3371
3332 3378
3333 3352
3333 3358
3333 3376
3333 3378
3333 3389
3334 3346
3334 3348
3334 3351
3334 3377
3334 3378
3334 3381
3334 3391
3335 3348
3335 3380
3335 3381
3335 4597
3336 3368
3336 3369
3336 3384
3337 3338
3337 3345
3337 3370
3337 3380
3337 3382
3337 3391
3337 3394
3338 3344
3338 3371
3338 3376
3338 3379
3338 3382
3338 3388
3338 3391
3338 3393
3338 3395
3339 3340
3339 3343
3339 3344
3339 3360
3339 3368
3339 3392
3340 3345
3340 3351
3340 3372
3340 3388
3340 3389
3340 3394
3341 3360
3341 3362
3341 3363
3341 3371
3341 3388
3342 3344
3342 3345
3342 3361
3342 3364
3342 3367
3342 3369
3342 3371
3342 3374
3342 3379
3342 4515
3343 3351
3343 3356
3343 3386
3343 3390
3343 3395
3343 3397
3344 3348
3344 3350
3344 3363
3344 3366
3344 3369
3344 3372
3344 3387
3345 3358
3345 3361
3345 3367
3345 3375
3345 3376
3345 3377
3345 3388
3345 3397
3345 3398
3346 3360
3346 3375
3346 3377
3346 3389
3346 3391
3346 3392
3346 3603
3347 3380
3348 3355
3348 3363
3348 3365
3348 3375
3348 3379
3348 3381
3348 3388
3348 3394
3349 3364
3349 3388
3349 3399
3350 3352
3350 3360
3350 3363
3350 3374
3350 3375
3350 3376
3350 3379
3350 3384
3350 3387
3351 3352
3351 3365
3351 3367
3351 3391
3351 3395
3352 3354
3352 3365
3352 3396
3353 3360
3353 3364
3353 3374
3353 3378
3353 4742
3354 3369
3354 3380
3354 3390
3355 3371
3355 3390
3355 3397
3355 3399
3356 3361
3356 3385
3356 3388
3356 3391
3356 3394
3357 3361
3357 3362
3357 3383
3357 4591
3358 3379
3358 3385
3358 3392
3359 3364
3359 3367
3359 3375
3359 3377
3360 3380
3360 3393
3361 3373
3361 3390
3362 3364
3362 3372
3362 3376
3362 3377
3362 3399
3363 3375
3363 3380
3364 3365
3364 3366
3364 3375
3364 3383
3365 3368
3365 3369
3365 3377
3365 3381
3365 3383
3366 3374
3366 3379
3366 3383
3366 3392
3366 3394
3367 3371
3367 3377
3368 3370
3368 3372
3368 3373
3369 3370
3369 3381
3369 3383
3369 3387
3369 3399
3370 3381
3370 3384
3370 3385
3370 3397
3370 4262
3371 3374
3371 3386
3372 3375
3372 3391
3373 3389
3375 3383
3375 3384
3375 3397
3376 3383
3376 3387
3376 3394
3376 3803
3377 3384
3377 3732
3378 3379
3380 3383
3380 3395
3381 3383
3382 3394
3382 3398
3382 4528
3385 3386
3385 3387
3386 3395
3386 3397
3388 3392
3388 3393
3388 3399
3389 3396
3389 3399
3391 3394
3392 3395
3392 4105
3395 3396
3396 3399
3397 3398
3400 3403
3400 3414
3400 3416
3400 3422
3400 3423
3400 3427
3400 3428
3400 3439
3400 3440
3400 3443
3400 3446
3400 3463
3400 3466
3400 3467
3400 3474
3400 3491
3400 3495
3401 3406
3401 3417
3401 3425
3401 3432
3401 3439
3401 3458
3401 3466
3401 3475
3401 3481
3401 3485
3401 3486
3401 3494
3402 3419
3402 3432
3402 3433
3402 3438
3402 3455
3402 3463
3402 3481
3402 3488
3402 3498
3403 3406
3403 3415
3403 3444
3403 3458
3403 3461
3403 3465
3403 3491
3404 3410
3404 3413
3404 3441
3404 3445
3404 3447
3404 3451
3404 3456
3404 3458
3404 3468
3404 3470
3404 3471
3404 3478
3404 3486
3404 3489
3405 3424
3405 3425
3405 3426
3405 3435
3405 3478
3405 3479
3406 3411
3406 3416
3406 3421
3406 3426
3406 3428
3406 3431
3406 3441
3406 3447
3406 3454
3406 3457
3406 3472
3406 3475
3406 3477
3406 3478
3406 3485
3406 3492
3406 3493
3406 3494
3406 3495
3407 3408
3407 3409
3407 3410
3407 3443
3407 3456
3407 3458
3407 3464
3407 3472
3407 3474
3407 3476
3407 3479
3407 3497
3408 3422
3408 3425
3408 3440
3408 3463
3408 3480
3408 3483
3409 3412
3409 3415
3409 3418
3409 3436
3409 3445
3409 3463
3409 3472
3409 3484
3409 3486
3409 3488
3409 3489
3409 3491
3410 3413
3410 3418
3410 3421
3410 3422
3410 3431
3410 3443
3410 3453
3410 3455
3410 3456
3410 3459
3410 3460
3410 3461
3410 3467
3410 3476
3410 3484
3411 3426
3411 3431
3411 3461
3411 3463
3411 3467
3411 3482
3411 3495
3411 3498
3412 3425
3412 3431
3412 3432
3412 3439
3412 3441
3412 3456
3412 3475
3412 3494
3412 3498
3413 3414
3413 3420
3413 3437
3413 3439
3413 3441
3413 3454
3413 3457
3413 3459
3413 3463
3413 3466
3413 3467
3414 3415
3414 3416
3414 3417
3414 3419
3414 3422
3414 3431
3414 3432
3414 3436
3414 3443
3414 3451
3414 3472
3414 3473
3414 3480
3414 3491
3414 3496
3415 3424
3415 3425
3415 3431
3415 3438
3415 3440
3415 3443
3415 3453
3415 3455
3415 3456
3416 3433
3416 3435
3416 3448
3416 3482
3416 3495
3417 3418
3417 3428
3417 3434
3417 3436
3417 3437
3417 3439
3417 3441
3417 3475
3417 3476
3417 3478
3417 3484
3417 3488
3417 3490
3417 3491
3417 3493
3417 3494
3417 3495
3417 3498
3418 3419
3418 3435
3418 3445
3418 3451
3418 3454
3418 3472
3418 3473
3418 3487
3418 3493
3418 3497
3418 4167
3419 3488
3419 3496
3420 3432
3420 3434
3420 3450
3420 3468
3420 3488
3420 3490
3420 3497
3421 3441
3421 3443
3421 3446
3421 3449
3421 3451
3421 3453
3421 3460
3421 3466
3421 3470
3421 3471
3421 3496
3421 3638
3422 3431
3422 3434
3422 3444
3422 3451
3422 3456
3422 3457
3422 3465
3422 3478
3422 3496
3423 3436
3423 3441
3423 3454
3423 3462
3423 3476
3423 3478
3423 3480
3423 3492
3424 3433
3424 3449
3424 3452
3424 3482
3424 3489
3424 4059
3425 3438
3425 3441
3425 3444
3425 3450
3425 3479
3426 3429
3426 3430
3426 3471
3426 3498
3427 3430
3427 3431
3427 3446
3427 3455
3427 3459
3427 3472
3427 3480
3427 3496
3427 3499
3428 3459
3428 3471
3428 3474
3428 3477
3428 3498
3429 3432
3429 3443
3429 3452
3429 3455
3429 3483
3429 3484
3429 3489
3429 3659
3430 3441
3430 3442
3430 3454
3430 3460
3430 3469
3430 3476
3431 3435
3431 3438
3431 3441
3431 3453
3431 3491
3431 3498
3432 3446
3432 3449
3432 3458
3432 3475
3432 3489
3432 3492
3433 3436
3433 3446
3433 3457
3433 3476
3433 3478
3433 3486
3433 3493
3434 3454
3434 3476
3434 3480
3434 3489
3435 3436
3435 3439
3435 3442
3435 3490
3436 3438
3436 3441
3436 3472
3436 3473
3436 3494
3436 3498
3436 4924
3437 3444
3437 3447
3437 3450
3437 3468
3437 3472
3438 3444
3438 3450
3438 3453
3438 3456
3438 3457
3438 3468
3438 3488
3438 3496
3439 3455
3439 3465
3439 3470
3439 3475
3439 3483
3439 3485
3439 3494
3440 3444
3440 3463
3440 3469
3440 3471
3440 3481
3440 3484
3440 3485
3441 3455
3441 3478
3441 3481
3441 3482
3441 3490
3441 3494
3442 3445
3442 3456
3442 3481
3442 3494
3443 3471
3443 3476
3443 3487
3443 3492
3443 3496
3444 3446
3444 3450
3444 3454
3444 3469
3444 3483
3444 3488
3445 3490
3445 3495
3445 3497
3446 3454
3446 3462
3446 3464
3446 3491
3446 3497
3447 3452
3447 3480
3447 3483
3447 3494
3447 3495
3447 3499
3447 3751
3448 3450
3448 3463
3448 3469
3448 3471
3448 3473
3448 3475
3449 3467
3449 3472
3449 3493
3450 3452
3450 3464
3450 3466
3450 3476
3450 3487
3450 3498
3451 3464
3451 3478
3451 3488
3451 3489
3451 3496
3451 4242
3452 3468
3452 3486
3452 3487
3452 3488
3453 3495
3454 3462
3455 3458
3455 3470
3455 3486
3455 3487
3455 3490
3456 3463
3456 3464
3456 3474
3456 3482
3456 3484
3456 3490
3456 3492
3457 3467
3457 3474
3457 3476
3457 3498
3458 3477
3458 3489
3458 3498
3458 4457
3459 3466
3459 3476
3459 3490
3460 3468
3460 3469
3460 3486
3460 3496
3461 3473
3461 3482
3461 3483
3461 3493
3462 3473
3462 3477
3462 3481
3462 3489
3463 3472
3463 3481
3463 3494
3463 3496
3464 3466
3464 3469
3464 3477
3464 3484
3464 3493
3464 3494
3464 4382
3465 3472
3465 3478
3465 3481
3466 3467
3466 3473
3466 3479
3467 3470
3467 3471
3467 3476
3467 3481
3467 3488
3468 3470
3468 3487
3468 3489
3468 3490
3468 3496
3469 3493
3469 3498
3470 3475
3470 3492
3470 3493
3471 3474
3471 3491
3472 3480
3472 3484
3472 3492
3472 3496
3473 3474
3474 3477
3474 3479
3474 3480
3474 3483
3474 3494
3475 3490
3475 3496
3475 3498
3476 3481
3476 3495
3477 3493
3477 3496
3477 3497
3478 3491
3479 3480
3479 3481
3479 3491
3480 3481
3480 3484
3480 3490
3480 3497
3480 3498
3481 3488
3482 3493
3485 3495
3486 3489
3487 3496
3491 3499
3491 4814
3494 3495
3496 3497
3496 4621
3499 3738
3500 3511
3500 3518
3500 3528
3500 3540
3500 3541
3500 3543
3500 3555
3500 3566
3500 3569
3500 3576
3500 3582
3501 3509
3501 3535
3501 3538
3501 3540
3501 3553
3501 3568
3501 3572
3501 3597
3502 3534
3502 3543
3502 3549
3502 3569
3502 3571
3502 3574
3502 3587
3502 3599
3503 3527
3503 3530
3503 3533
3503 3543
3503 3546
3503 3551
3503 3561
3503 3562
3503 3574
3503 3597
3504 3510
3504 3563
3504 3578
3504 3587
3504 3594
3504 3598
3505 3508
3505 3520
3505 3529
3505 3541
3505 3558
3505 3577
3505 3579
3505 3581
3505 3583
3505 3588
3506 3529
3506 3530
3506 3545
3506 3568
3506 3579
3506 3582
3506 3584
3506 3587
3506 3591
3507 3513
3507 3515
3507 3521
3507 3533
3507 3535
3507 3543
3507 3550
3507 3551
3507 3555
3507 3578
3507 3592
3508 3510
3508 3522
3508 3528
3508 3542
3508 3546
3508 3550
3508 3563
3508 3576
3508 3580
3508 3590
3508 3592
3508 3595
3508 3596
3509 3513
3509 3531
3509 3537
3509 3567
3509 3570
3509 3575
3509 3581
3509 3590
3509 3593
3509 3597
3509 4990
3510 3518
3510 3528
3510 3538
3510 3548
3510 3564
3510 3571
3510 3583
3511 3513
3511 3517
3511 3522
3511 3538
3511 3550
3511 3559
3511 3563
3511 3575
3511 3576
3511 3579
3511 3588
3512 3520
3512 3530
3512 3532
3512 3539
3512 3547
3512 3553
3512 3558
3512 3581
3512 3587
3513 3514
3513 3518
3513 3519
3513 3527
3513 3535
3513 3537
3513 3543
3513 3547
3513 3551
3513 3566
3513 3567
3513 3578
3513 3597
3514 3563
3514 3568
3514 3575
3514 3579
3514 3593
3515 3531
3515 3548
3515 3567
3515 3592
3515 3598
3516 3522
3516 3535
3516 3536
3516 3558
3516 3561
3516 3577
3516 3581
3516 3586
3516 3598
3517 3518
3517 3522
3517 3527
3517 3550
3517 3556
3517 3559
3517 3567
3517 3591
3517 3593
3517 3596
3517 3598
3518 3559
3518 3562
3518 3567
3518 3585
3518 3588
3518 3595
3519 3521
3519 3522
3519 3540
3519 3543
3519 3556
3519 3560
3519 3583
3519 3592
3520 3533
3520 3536
3520 3559
3520 3596
3520 3597
3521 3524
3521 3533
3521 3557
3521 3573
3521 3574
3521 3590
3521 3593
3522 3525
3522 3527
3522 3541
3522 3542
3522 3555
3522 3560
3522 3576
3522 3586
3522 3588
3523 3524
3523 3527
3523 3528
3523 3531
3523 3533
3523 3546
3523 3567
3523 3576
3523 3584
3523 3596
3524 3529
3524 3535
3524 3547
3524 3561
3524 3566
3524 3571
3524 3587
3525 3527
3525 3530
3525 3540
3525 3559
3525 3570
3525 3573
3525 3581
3526 3542
3526 3546
3526 3553
3526 3593
3527 3528
3527 3539
3527 3563
3527 3568
3527 3578
3527 3584
3527 3586
3527 3599
3528 3557
3528 3562
3528 3565
3528 3569
3528 3572
3528 3589
3529 3539
3529 3540
3529 3544
3529 3545
3529 3561
3529 3564
3529 3570
3529 3581
3529 3586
3530 3542
3530 3547
3530 3548
3530 3562
3530 3573
3530 3592
3530 3983
3531 3538
3531 3548
3531 3551
3531 3575
3531 3587
3531 3594
3531 4003
3532 3535
3532 3544
3532 3545
3532 3551
3532 3555
3532 3567
3532 3586
3532 3595
3533 3541
3533 3553
3533 3557
3533 3566
3533 3568
3533 3569
3533 3571
3533 3582
3533 3585
3533 3587
3533 3596
3534 3536
3534 3552
3534 3579
3534 3581
3534 3586
3534 3594
3535 3536
3535 3537
3535 3543
3535 3546
3535 3552
3535 3560
3535 3575
3535 3578
3535 3579
3535 3580
3535 3591
3535 3593
3536 3540
3536 3552
3536 3575
3536 3586
3536 3588
3536 3596
3536 4647
3537 3539
3537 3565
3537 3568
3537 3574
3537 3580
3537 3585
3537 4060
3538 3542
3538 3543
3538 3558
3538 3560
3538 3580
3538 3583
3538 3592
3538 3595
3539 3563
3539 3572
3539 3582
3539 3584
3539 3588
3539 3595
3540 3544
3540 3580
3541 3549
3541 3550
3541 3560
3541 3581
3541 3586
3542 3568
3542 3585
3542 3586
3542 3592
3542 3597
3543 3544
3543 3546
3543 3555
3543 3564
3543 3566
3543 3571
3543 3572
3543 3575
3543 3588
3543 3596
3543 3598
3544 3561
3544 3576
3544 3580
3544 3585
3544 3597
3545 3549
3545 3554
3545 3555
3545 3581
3545 3583
3545 3594
3546 3558
3546 3574
3546 3590
3547 3553
3547 3558
3547 3585
3547 3586
3547 3598
3548 3549
3548 3555
3548 3588
3549 3564
3549 3566
3549 3569
3550 3557
3550 3561
3550 3571
3550 3580
3550 3583
3550 3597
3550 3598
3550 3920
3551 3579
3551 3580
3551 3594
3552 3575
3552 3593
3552 3598
3553 3561
3553 3566
3553 3567
3553 3580
3553 3583
3553 3590
3554 3566
3554 3570
3554 3572
3554 3575
3554 3586
3554 3596
3555 3559
3555 3560
3555 3564
3555 3574
3555 3588
3555 3591
3555 3595
3555 3596
3556 3563
3556 3565
3556 3566
3556 3574
3556 3596
3557 3561
3557 3567
3557 3572
3557 3575
3557 3579
3557 3594
3558 3589
3559 3562
3559 3572
3559 3597
3559 3598
3559 3599
3560 3571
3560 3573
3560 3588
3560 3590
3561 3571
3561 3580
3561 3588
3562 3579
3562 3580
3563 3570
3564 3575
3564 3578
3564 3579
3564 3581
3564 3587
3564 3590
3564 3599
3565 3578
3565 4562
3566 3589
3566 3590
3566 3594
3566 3599
3567 3580
3567 3584
3567 3588
3567 3596
3567 3950
3568 3575
3568 3589
3568 3591
3569 3573
3569 3580
3569 3582
3569 3587
3570 3573
3570 3579
3570 3584
3570 3585
3570 3589
3571 3573
3572 3584
3573 3575
3573 3586
3573 3594
3574 3575
3574 3577
3574 3584
3574 3586
3574 3596
3575 3585
3575 3829
3576 3584
3576 3596
3577 3583
3577 3598
3578 3595
3578 3599
3580 3585
3580 3596
3580 4092
3582 3591
3585 3586
3586 3590
3586 3596
3587 3590
3587 3597
3588 3590
3588 3595
3589 3596
3590 3594
3591 3596
3594 3598
3600 3602
3600 3610
3600 3611
3600 3621
3600 3635
3600 3638
3600 3640
3600 3641
3600 3650
3600 3654
3600 3661
3600 3671
3600 3675
3600 3676
3600 3679
3600 3683
3600 3684
3600 3688
3600 3698
3601 3603
3601 3608
3601 3621
3601 3622
3601 3623
3601 3654
3601 3665
3601 3670
3601 3683
3601 3684
3601 3686
3601 3698
3602 3609
3602 3612
3602 3621
3602 3627
3602 3629
3602 3644
3602 3647
3602 3653
3602 3665
3602 3672
3602 3676
3602 3679
3602 3681
3602 3685
3602 3686
3602 3687
3602 3692
3603 3617
3603 3620
3603 3632
3603 3636
3603 3683
3603 4010
3604 3618
3604 3621
3604 3642
3604 3671
3604 3687
3604 3691
3604 3697
3605 3614
3605 3625
3605 3631
3605 3632
3605 3699
3606 3611
3606 3625
3606 3627
3606 3631
3606 3632
3606 3640
3606 3660
3606 3665
3606 3682
3606 3684
3606 3688
3606 3699
3607 3611
3607 3612
3607 3641
3607 3651
3607 3652
3607 3668
3607 3670
3607 3673
3607 3674
3607 3679
3607 3688
3608 3617
3608 3625
3608 3642
3608 3646
3608 3662
3608 3670
3608 3685
3608 3695
3609 3613
3609 3620
3609 3632
3609 3633
3609 3635
3609 3645
3609 3648
3609 3657
3609 3666
3609 3672
3609 3689
3609 3696
3610 3614
3610 3616
3610 3618
3610 3631
3610 3644
3610 3660
3610 3664
3610 3668
3610 3674
3610 3689
3610 3691
3611 3668
3611 3670
3611 4416
3612 3650
3612 3651
3612 3654
3612 3657
3612 3666
3612 3673
3612 3690
3612 3696
3613 3619
3613 3623
3613 3630
3613 3635
3613 3645
3613 3649
3613 3654
3613 3666
3613 3677
3613 3680
3613 3682
3613 3688
3613 3690
3614 3616
3614 3622
3614 3627
3614 3630
3614 3633
3614 3643
3614 3650
3614 3652
3614 3657
3614 3681
3614 3685
3615 3617
3615 3622
3615 3628
3615 3629
3615 3633
3615 3637
3615 3641
3615 3647
3615 3671
3615 3680
3615 3684
3616 3628
3616 3642
3616 3645
3616 3647
3616 3653
3616 3674
3616 3680
3616 3685
3617 3620
3617 3626
3617 3634
3617 3646
3617 3654
3617 3667
3617 3687
3617 4918
3618 3629
3618 3631
3618 3647
3618 3656
3618 3659
3618 3681
3619 3628
3619 3645
3619 3657
3619 3672
3620 3628
3620 3638
3620 3641
3620 3644
3620 3646
3620 3661
3620 3662
3620 3667
3620 3674
3620 3676
3620 3681
3620 3683
3621 3628
3621 3633
3621 3653
3621 3661
3621 3663
3621 3682
3621 3688
3621 3695
3622 3626
3622 3630
3622 3636
3622 3638
3622 3639
3622 3643
3622 3651
3622 3656
3622 3663
3622 3688
3623 3624
3623 3649
3623 3672
3623 3674
3623 3680
3623 4874
3624 3633
3624 3641
3624 3644
3624 3646
3624 3658
3624 3665
3625 3627
3625 3628
3625 3645
3625 3652
3625 3653
3625 3663
3625 3666
3625 3667
3625 3674
3625 3691
3626 3640
3626 3649
3626 3671
3626 3690
3627 3634
3627 3635
3627 3643
3627 3646
3627 3659
3627 3663
3627 3684
3627 3690
3627 3691
3627 3692
3627 3905
3627 4472
3628 3639
3628 3643
3628 3646
3628 3664
3628 3670
3628 3683
3628 3689
3628 3692
3629 3635
3629 3654
3629 3670
3629 3681
3629 3686
3630 3654
3630 3657
3630 3668
3630 3670
3630 3674
3630 3676
3630 3680
3630 3681
3630 3682
3630 3690
3631 3634
3631 3650
3631 3660
3631 3663
3631 3665
3631 3674
3631 3680
3631 3686
3631 3690
3631 3694
3631 3697
3632 3638
3632 3651
3632 3652
3632 3685
3632 3692
3632 3695
3632 3697
3632 3698
3632 3699
3633 3636
3633 3666
3633 3676
3633 3679
3634 3641
3634 3643
3634 3654
3634 3658
3634 3674
3634 3685
3634 3693
3635 3681
3635 3683
3636 3644
3636 3648
3636 3671
3636 3678
3636 3681
3636 3699
3637 3639
3637 3657
3637 3668
3637 3676
3637 4946
3638 3646
3638 3648
3638 3651
3638 3660
3638 3686
3638 3687
3639 3640
3639 3664
3639 3666
3639 3674
3639 3684
3639 3687
3639 4369
3640 3645
3640 3647
3640 3653
3640 3681
3640 3689
3641 3653
3641 3678
3641 3681
3642 3647
3642 3649
3642 3666
3642 3683
3642 3692
3643 3646
3643 3649
3643 3652
3643 3653
3643 3661
3643 3666
3643 3672
3643 3679
3643 3682
3643 3687
3643 3694
3643 3695
3644 3645
3644 3648
3644 3658
3644 3678
3644 3687
3645 3657
3645 3674
3645 3682
3645 3693
3645 3694
3645 3697
3646 3655
3646 3661
3646 3666
3646 3688
3647 3649
3647 3655
3647 3663
3647 3668
3647 3683
3647 3686
3647 3691
3648 3651
3648 3656
3648 3660
3648 3674
3648 3675
3648 3689
3649 3657
3649 3668
3649 3669
3649 3677
3649 3678
3649 3694
3650 3668
3650 3670
3650 3674
3650 3699
3651 3659
3651 3670
3651 3675
3651 3682
3651 3689
3651 3695
3652 3659
3652 3662
3652 3664
3652 3681
3652 3683
3653 3660
3653 3669
3653 3685
3654 3657
3654 3662
3655 3657
3655 3661
3655 3662
3655 3664
3655 3698
3656 3659
3656 3662
3656 3675
3656 3679
3656 3687
3656 3688
3656 3698
3657 3669
3657 3674
3657 3680
3657 3687
3658 3664
3658 3679
3659 3671
3660 3668
3660 3677
3660 3678
3660 3684
3660 3685
3661 3664
3661 3681
3661 3684
3661 3691
3662 3678
3662 3679
3662 3680
3662 3684
3663 3665
3663 3681
3663 3697
3664 3674
3664 3679
3665 3693
3665 3694
3665 3697
3666 3668
3666 3669
3666 3672
3666 3673
3666 3689
3666 3867
3667 3682
3667 3695
3667 3698
3668 3680
3668 3684
3668 3692
3668 3694
3669 3671
3669 3676
3669 3687
3669 3691
3670 3698
3671 3675
3671 3682
3671 3683
3672 3673
3672 4624
3673 3681
3674 3694
3675 3689
3676 3692
3677 3688
3677 3692
3678 3682
3678 3692
3679 3683
3679 3690
3679 3696
3680 4152
3681 3685
3681 3689
3681 3698
3681 4121
3682 3693
3682 3699
3685 3691
3686 3692
3686 3699
3687 4214
3688 3697
3689 3690
3689 3691
3695 3697
3700 3707
3700 3712
3700 3721
3700 3761
3701 3716
3701 3722
3701 3736
3701 3746
3701 3747
3701 3751
3701 3766
3701 3771
3701 3777
3701 3798
3702 3729
3702 3741
3702 3742
3702 3761
3702 3770
3702 3780
3702 3785
3702 3786
3703 3711
3703 3712
3703 3713
3703 3715
3703 3734
3703 3749
3703 3758
3703 3793
3704 3706
3704 3713
3704 3747
3704 3753
3704 3755
3704 3768
3704 3782
3704 3789
3704 3796
3704 3797
3705 3716
3705 3717
3705 3749
3705 3757
3705 3760
3705 3777
3705 3785
3705 3791
3706 3733
3706 3741
3706 3745
3706 3754
3706 3760
3706 3768
3706 3773
3706 3788
3706 3799
3707 3711
3707 3712
3707 3719
3707 3743
3707 3766
3707 3770
3707 3780
3708 3730
3708 3738
3708 3745
3708 3757
3708 3782
3709 3711
3709 3712
3709 3723
3709 3732
3709 3739
3709 3740
3709 3744
3709 3753
3709 3759
3709 3761
3709 3767
3709 3772
3709 3784
3709 3792
3709 3794
3710 3711
3710 3736
3710 3740
3710 3744
3710 3751
3710 3764
3710 3767
3710 3771
3711 3713
3711 3728
3711 3736
3711 3738
3711 3743
3711 3745
3711 3754
3711 3756
3711 3758
3711 3762
3711 3792
3712 3720
3712 3727
3712 3734
3712 3741
3712 3746
3712 3758
3712 3780
3712 3798
3713 3714
3713 3716
3713 3723
3713 3726
3713 3727
3713 3753
3713 3755
3713 3760
3713 3770
3713 3772
3713 3776
3713 3789
3713 3796
3714 3717
3714 3719
3714 3720
3714 3732
3714 3734
3714 3739
3714 3752
3714 3753
3714 3761
3714 3777
3714 3778
3715 3717
3715 3736
3715 3743
3715 3752
3715 3754
3715 3757
3715 3766
3715 3772
3715 3780
3716 3731
3716 3750
3716 3760
3716 3762
3716 3763
3716 3768
3716 3770
3716 3776
3716 3777
3717 3733
3717 3761
3717 3765
3717 3774
3717 3783
3717 3789
3718 3746
3718 3760
3718 3766
3718 3768
3718 3777
3718 3785
3719 3729
3719 3731
3719 3743
3719 3753
3719 3761
3720 3722
3720 3739
3720 3753
3720 3774
3720 3778
3720 3796
3721 3724
3721 3737
3721 3754
3721 3769
3721 3795
3721 3798
3721 4227
3722 3734
3722 3739
3722 3745
3722 3747
3722 3758
3722 3763
3722 3768
3722 3771
3722 3774
3722 3777
3722 3782
3723 3728
3723 3746
3723 3749
3723 3765
3724 3789
3725 3726
3725 3749
3725 3765
3725 3772
3725 3788
3725 3789
3725 3790
3725 3792
3726 3728
3726 3731
3726 3744
3726 3745
3726 3747
3726 3748
3726 3755
3727 3728
3727 3748
3727 3754
3727 3760
3727 3774
3727 3795
3727 3799
3728 3743
3728 3756
3728 3767
3728 3769
3728 3783
3729 3757
3729 3760
3729 3770
3729 3782
3730 3735
3730 3739
3730 3746
3730 3763
3730 3795
3731 3735
3731 3746
3731 3747
3731 3751
3731 3756
3731 3757
3731 3759
3731 3763
3731 3766
3731 3775
3731 3784
3731 3799
3732 3739
3732 3755
3732 3756
3732 3768
3732 3780
3732 3786
3733 3757
3733 3772
3733 3779
3733 3785
3733 3791
3733 3799
3734 3737
3734 3738
3734 3744
3734 3756
3734 3778
3734 3782
3735 3753
3735 3783
3735 4786
3736 3759
3736 3765
3736 3772
3736 3777
3736 3790
3736 3791
3737 3741
3737 3757
3737 3760
3737 3766
3737 3783
3737 3799
3738 3763
3738 3797
3739 3740
3739 3741
3739 3748
3739 3751
3739 3756
3739 3757
3739 3763
3739 3764
3739 3770
3739 3778
3739 3786
3739 3799
3740 3749
3740 3759
3740 3771
3740 3779
3740 3787
3740 3789
3740 3797
3740 3798
3741 3771
3741 3776
3741 3783
3741 3796
3741 4797
3742 3745
3742 3756
3742 3763
3743 3752
3743 3763
3743 3766
3743 3768
3743 3778
3743 3780
3744 3755
3744 3776
3744 3781
3744 3783
3744 3788
3745 3753
3745 3765
3745 3770
3745 3792
3746 3752
3746 3758
3746 3769
3746 3784
3747 3752
3747 3753
3747 3775
3747 3778
3747 3790
3748 3754
3748 3769
3748 3770
3748 4387
3749 3751
3749 3762
3749 3770
3749 3778
3749 3783
3749 3786
3750 3767
3750 3774
3750 3777
3750 3784
3750 3788
3750 3789
3750 3790
3751 3755
3751 3769
3751 4524
3752 3755
3752 3771
3752 3774
3752 3785
3752 3794
3753 3754
3753 3782
3754 3755
3754 3768
3754 3776
3755 3770
3755 4660
3756 3757
3756 3764
3756 3767
3756 3788
3756 3793
3757 3761
3757 3762
3757 3771
3757 3777
3757 3795
3758 3771
3758 3789
3759 3774
3759 3792
3760 3766
3760 3783
3760 3787
3760 3796
3761 3769
3761 3780
3761 3781
3761 3791
3761 3798
3762 3765
3762 3773
3762 3791
3762 3796
3762 3799
3763 3767
3763 3784
3764 3782
3764 3786
3764 3794
3765 3767
3765 3779
3766 3774
3766 3776
3766 3784
3766 3788
3766 3791
3767 3789
3767 3793
3767 3797
3768 3795
3769 3779
3769 3784
3769 3799
3770 3781
3770 3793
3771 3781
3771 3790
3771 4436
3773 3780
3773 3781
3773 3788
3773 3795
3774 3775
3774 3795
3774 3798
3775 3782
3775 3787
3776 3779
3776 3785
3776 3786
3776 3795
3776 3798
3777 3779
3777 3795
3777 3796
3778 3784
3779 3785
3779 3787
3779 3791
3780 3789
3781 3784
3781 3785
3781 3790
3781 3791
3781 3799
3782 3783
3782 3788
3782 3791
3782 4171
3783 3791
3783 3793
3785 3787
3786 3793
3786 3799
3788 4134
3789 3797
3790 3791
3791 3792
3792 3795
3792 3797
3796 3799
3797 4430
3800 3850
3800 3868
3800 3874
3800 3884
3801 3802
3801 3813
3801 3844
3801 3858
3801 3870
3801 3872
3801 3881
3802 3806
3802 3809
3802 3811
3802 3817
3802 3823
3802 3830
3802 3844
3802 3849
3802 3852
3802 3854
3802 3864
3802 3868
3802 3874
3802 3875
3802 3883
3802 3895
3803 3855
3803 3858
3803 3859
3803 3861
3803 3875
3803 4051
3804 3809
3804 3812
3804 3818
3804 3821
3804 3844
3804 3845
3804 3853
3804 3857
3804 3861
3804 3882
3804 3884
3804 3898
3804 3899
3805 3811
3805 3820
3805 3830
3805 3841
3805 3846
3805 3853
3805 3861
3805 3885
3805 3895
3805 3899
3806 3815
3806 3838
3806 3846
3806 3851
3806 3858
3806 3867
3806 3888
3806 3890
3806 4968
3807 3810
3807 3827
3807 3840
3807 3841
3807 3842
3807 3850
3807 3879
3807 3885
3807 3891
3808 3815
3808 3818
3808 3854
3808 3859
3808 3861
3808 3864
3808 3871
3808 3879
3808 3886
3808 3890
3809 3825
3809 3831
3809 3838
3809 3859
3809 3867
3809 3880
3809 3884
3809 3892
3809 3896
3810 3811
3810 3815
3810 3837
3810 3850
3810 3853
3810 3866
3810 3868
3810 3891
3811 3818
3811 3823
3811 3833
3811 3843
3811 3845
3811 3853
3811 3861
3811 3877
3812 3815
3812 3829
3812 3830
3812 3831
3812 3833
3812 3835
3812 3837
3812 3841
3812 3842
3812 3846
3812 3849
3812 3851
3812 3853
3812 3856
3812 3860
3812 3861
3812 3865
3812 3875
3812 3885
3812 3886
3812 3889
3812 3892
3813 3827
3813 3829
3813 3850
3813 3854
3813 3865
3813 3868
3813 3873
3813 3875
3813 3879
3814 3818
3814 3822
3814 3835
3814 3839
3814 3840
3814 3856
3814 3860
3814 3863
3814 3867
3814 3876
3814 3879
3814 3882
3814 3896
3815 3821
3815 3825
3815 3833
3815 3836
3815 3840
3815 3854
3815 3883
3815 3888
3815 3896
3816 3824
3816 3849
3816 3850
3816 3851
3816 3857
3816 3870
3816 3879
3816 3892
3816 3895
3816 3897
3817 3821
3817 3837
3817 3842
3817 3844
3817 3853
3817 3866
3817 3881
3817 3882
3817 3888
3817 3897
3818 3824
3818 3828
3818 3851
3818 3853
3818 3857
3818 3862
3818 3880
3818 3881
3818 3883
3818 3885
3818 3890
3819 3829
3819 3836
3819 3848
3819 3854
3819 3858
3819 3870
3819 3873
3819 3888
3819 3889
3820 3829
3820 3832
3820 3838
3820 3845
3820 3856
3820 3884
3820 3890
3820 3894
3821 3827
3821 3846
3821 3848
3821 3855
3821 3871
3821 3886
3821 3896
3821 4742
3822 3839
3822 3846
3822 3851
3822 3875
3823 3853
3823 3869
3823 3873
3824 3837
3824 3842
3824 3851
3824 3875
3824 3876
3824 3879
3824 3890
3824 3895
3825 3833
3825 3836
3825 3864
3825 3871
3825 3875
3825 3883
3825 3891
3825 3893
3825 3899
3826 3828
3826 3833
3826 3836
3826 3844
3826 3846
3826 3853
3826 3861
3826 3871
3826 3875
3826 3880
3826 3885
3827 3836
3827 3843
3827 3847
3827 3850
3827 3860
3827 3868
3827 3872
3827 3880
3827 3893
3828 3856
3828 3862
3828 3866
3828 3876
3828 3895
3829 3844
3829 3845
3829 3860
3829 3862
3829 3865
3829 3875
3829 3883
3830 3866
3830 3867
3830 3880
3831 3836
3831 3851
3831 3855
3831 3856
3831 3860
3831 3863
3831 3883
3831 3886
3831 3889
3832 3833
3832 3865
3832 3867
3832 3875
3832 3884
3832 3886
3832 3893
3832 3899
3833 3834
3833 3835
3833 3866
3833 3871
3833 3884
3833 3886
3834 3836
3834 3848
3834 3852
3834 3856
3834 3859
3834 3886
3834 3893
3834 3895
3834 3896
3835 3859
3835 3879
3836 3838
3836 3843
3836 3860
3836 3865
3836 3872
3836 3897
3837 3839
3837 3842
3837 3844
3837 3852
3837 3869
3837 3880
3837 3899
3838 3840
3838 3849
3838 3859
3838 3860
3838 3872
3838 3884
3838 3897
3839 3859
3839 3862
3839 3865
3839 3868
3839 3873
3839 3874
3839 3878
3840 3850
3840 3854
3840 3868
3840 3875
3841 3842
3841 3847
3841 3852
3841 3855
3841 3860
3841 3878
3841 3888
3841 3894
3842 3880
3842 3883
3842 3895
3843 3870
3843 3871
3843 3880
3843 3881
3843 3884
3843 3894
3843 3897
3844 3889
3845 3872
3845 3880
3845 3884
3845 3885
3845 3890
3846 3850
3846 3851
3846 3852
3846 3858
3846 3877
3846 3880
3846 3883
3846 3884
3846 3891
3847 3848
3847 3855
3847 3861
3847 3862
3847 3865
3847 3879
3847 3885
3847 3894
3848 3866
3848 3875
3848 3888
3848 3889
3849 3853
3850 3856
3850 3868
3850 3894
3850 3895
3851 3861
3851 3863
3851 3888
3851 4224
3852 3868
3852 3878
3852 3886
3852 3897
3853 3854
3853 3856
3853 3858
3853 3879
3853 3891
3853 3897
3853 4222
3853 4746
3854 3858
3854 3875
3854 3876
3854 3890
3855 3860
3855 3868
3855 3875
3855 3876
3855 3878
3856 3857
3856 3867
3856 3872
3856 3881
3856 3898
3857 3859
3857 3879
3857 3883
3858 3863
3858 3878
3858 3881
3858 3888
3858 3896
3858 3897
3859 3867
3859 3883
3860 3881
3860 3882
3860 3887
3860 3897
3861 3868
3861 3872
3861 3876
3861 3877
3861 3886
3861 3899
3862 3885
3863 3872
3863 3877
3863 3880
3863 3885
3863 3891
3863 3977
3864 3868
3864 3871
3864 3872
3864 3873
3864 3877
3864 3879
3864 3886
3864 3890
3865 3866
3865 3877
3865 3880
3865 3882
3865 3899
3866 3876
3866 3877
3866 3886
3866 4682
3868 3881
3868 3898
3869 3872
3869 3873
3870 3879
3870 3880
3870 3885
3870 3892
3870 3893
3871 3875
3871 3880
3871 3884
3871 3885
3871 3893
3871 3894
3871 3918
3873 3887
3873 3894
3875 3885
3875 3887
3875 3890
3875 3899
3876 3878
3876 3885
3876 3896
3877 3878
3877 3880
3877 3882
3877 3892
3877 3897
3877 3898
3879 3881
3879 3886
3879 3888
3881 3897
3882 3888
3882 3893
3884 3890
3884 3892
3884 3898
3888 3893
3888 3898
3890 3891
3890 3892
3890 3894
3890 3898
3891 3894
3891 3895
3891 3896
3893 3894
3893 3899
3894 3898
3900 3906
3900 3912
3900 3915
3900 3918
3900 3920
3900 3929
3900 3959
3900 3977
3900 3983
3901 3909
3901 3917
3901 3921
3901 3936
3901 3948
3901 3956
3901 3965
3901 3972
3901 3977
3901 3994
3901 3995
3902 3923
3902 3935
3902 3964
3902 3971
3902 3976
3902 3996
3903 3907
3903 3918
3903 3928
3903 3932
3903 3941
3903 3942
3903 3950
3903 3951
3903 3968
3903 3980
3903 3988
3903 3991
3904 3924
3904 3944
3904 3950
3904 3971
3904 3973
3904 3975
3904 3981
3904 3983
3904 3998
3905 3910
3905 3921
3905 3942
3905 3950
3905 3987
3905 3990
3906 3916
3906 3931
3906 3935
3906 3957
3906 3962
3906 3970
3906 3971
3907 3926
3907 3929
3907 3943
3907 3963
3907 3967
3907 3980
3907 3982
3907 3988
3907 3991
3908 3911
3908 3919
3908 3934
3908 3936
3908 3939
3908 3958
3908 3960
3908 3973
3908 3988
3908 3990
3908 3999
3909 3913
3909 3914
3909 3916
3909 3918
3909 3921
3909 3972
3909 3986
3910 3915
3910 3931
3910 3950
3910 3955
3910 3976
3910 3981
3910 3988
3910 3993
3911 3920
3911 3926
3911 3944
3911 3946
3911 3950
3911 3969
3911 3971
3911 3991
3912 3932
3912 3941
3912 3947
3912 3956
3912 3958
3912 3960
3912 3961
3912 3987
3913 3921
3913 3927
3913 3932
3913 3934
3913 3948
3913 3950
3913 3958
3913 3961
3913 3963
3913 3965
3913 3969
3913 3974
3914 3916
3914 3940
3914 3941
3914 3960
3914 3962
3914 3970
3914 3985
3914 3991
3914 3997
3914 3998
3915 3916
3915 3923
3915 3926
3915 3933
3915 3953
3915 3956
3915 3964
3915 3981
3916 3934
3916 3942
3916 3953
3916 3955
3916 3973
3916 3975
3916 3986
3916 3995
3916 3998
3916 3999
3917 3929
3917 3939
3917 3949
3917 3961
3917 3968
3917 3971
3918 3922
3918 3970
3918 3974
3918 3977
3918 3983
3918 3985
3918 3996
3918 3998
3919 3921
3919 3932
3919 3945
3919 3949
3919 3962
3919 3973
3919 3979
3919 3982
3919 3983
3920 3921
3920 3928
3920 3936
3920 3950
3920 3957
3920 3961
3920 3965
3920 3974
3920 3991
3920 3995
3921 3928
3921 3939
3921 3947
3921 3950
3921 3986
3921 3992
3922 3930
3922 3939
3922 3944
3922 3950
3922 3983
3922 3991
3923 3951
3923 3952
3923 3956
3923 3980
3923 3995
3924 3931
3924 3963
3924 3969
3925 3933
3925 3935
3925 3955
3925 3961
3925 3962
3925 3972
3925 3975
3925 3980
3925 3982
3926 3933
3926 3963
3926 3977
3926 3995
3927 3950
3927 3951
3927 3997
3927 4028
3928 3942
3928 3949
3928 3952
3928 3960
3928 3994
3929 3935
3929 3938
3929 3949
3929 3951
3929 3954
3929 3958
3930 3933
3930 3937
3930 3943
3930 3944
3930 3948
3930 3955
3930 3968
3930 3988
3930 3998
3931 3937
3931 3938
3931 3955
3931 3959
3931 3969
3931 3970
3931 3990
3932 3950
3932 3954
3932 3963
3932 3980
3933 3935
3933 3937
3933 3939
3933 3970
3933 3978
3933 3981
3933 3983
3933 3996
3934 3939
3934 3943
3934 3948
3934 3973
3934 3981
3934 3986
3934 3987
3934 3998
3935 3944
3935 3950
3935 3961
3935 3964
3935 3970
3935 3973
3935 3982
3935 3983
3935 3986
3935 3989
3936 3953
3936 3958
3936 3963
3937 3940
3937 3974
3937 3986
3937 3999
3937 4829
3938 3954
3938 3969
3938 3981
3938 3994
3938 3995
3938 3996
3938 3998
3938 4715
3939 3954
3939 3975
3940 3951
3940 3970
3940 3982
3940 3996
3940 3999
3941 3944
3941 3948
3941 3953
3941 3964
3941 3978
3941 3998
3942 3967
3942 3970
3942 3975
3942 3981
3942 3988
3942 3989
3942 3991
3943 3977
3943 3978
3944 3955
3944 3974
3944 3975
3944 3983
3945 3947
3945 3961
3945 3967
3945 3968
3945 3970
3945 3971
3945 3997
3946 3947
3946 3948
3946 3949
3946 3951
3946 3954
3946 3961
3946 3966
3946 3972
3946 3975
3946 3977
3946 3998
3947 3971
3947 3973
3947 3995
3948 3971
3948 3978
3948 3989
3949 3984
3949 3993
3949 3995
3949 3998
3950 3957
3950 3964
3950 3971
3950 3972
3950 3996
3951 3955
3951 3958
3951 3970
3951 3976
3952 3967
3952 3975
3952 3977
3952 3979
3952 3993
3952 3994
3953 3964
3953 3965
3953 3966
3953 3969
3953 3983
3953 3995
3954 3973
3954 3976
3954 3981
3954 3987
3954 3990
3954 3999
3955 3963
3955 3978
3956 3959
3956 3963
3956 3978
3956 3982
3956 3984
3956 4744
3957 3958
3957 3962
3957 3964
3957 3966
3957 3969
3957 3973
3957 3978
3957 3985
3957 3995
3958 3980
3958 3982
3958 3983
3958 3993
3958 3994
3958 3995
3959 3963
3959 3972
3959 3977
3959 3988
3959 3997
3960 3965
3960 3966
3960 3974
3960 3982
3960 3991
3961 3962
3961 3976
3962 3969
3962 3977
3962 3988
3963 3973
3964 3965
3964 3985
3964 3998
3966 3968
3966 3972
3966 3979
3966 3981
3967 3974
3967 3993
3967 3997
3968 3969
3968 3970
3968 3972
3968 3979
3968 3989
3968 3997
3969 3980
3969 3998
3969 3999
3970 3983
3970 3999
3970 4669
3971 3987
3972 3993
3973 3999
3973 4160
3974 3993
3974 3995
3975 3976
3975 3997
3976 3995
3977 3979
3977 3986
3978 3996
3979 3994
3979 3996
3979 3999
3980 3993
3980 3995
3981 3982
3981 3986
3981 3991
3981 4467
3982 3987
3982 3993
3984 3987
3985 3986
3985 3989
3985 3992
3987 4606
3988 3999
3992 3998
3995 3996
4000 4008
4000 4014
4000 4018
4000 4031
4000 4032
4000 4036
4000 4040
4000 4042
4000 4056
4000 4067
4000 4074
4000 4094
4001 4015
4001 4028
4001 4031
4001 4034
4001 4040
4001 4042
4001 4046
4001 4068
4001 4078
4001 4087
4001 4099
4002 4008
4002 4037
4002 4050
4002 4053
4002 4054
4002 4055
4002 4057
4002 4058
4002 4061
4002 4072
4002 4079
4002 4085
4002 4095
4002 4099
4003 4005
4003 4006
4003 4022
4003 4026
4003 4034
4003 4036
4003 4043
4003 4048
4003 4051
4003 4060
4003 4064
4003 4065
4003 4068
4003 4074
4003 4087
4003 4098
4004 4017
4004 4020
4004 4022
4004 4025
4004 4044
4004 4047
4004 4072
4004 4077
4004 4081
4005 4017
4005 4021
4005 4027
4005 4051
4005 4070
4005 4074
4005 4079
4005 4085
4005 4088
4005 4089
4005 4094
4006 4012
4006 4040
4006 4050
4006 4066
4006 4084
4006 4098
4007 4017
4007 4039
4007 4040
4007 4042
4007 4046
4007 4054
4007 4070
4007 4080
4007 4096
4007 4098
4008 4010
4008 4036
4008 4064
4008 4068
4008 4070
4009 4012
4009 4027
4009 4047
4009 4048
4009 4064
4009 4072
4009 4080
4009 4096
4009 4097
4010 4030
4010 4039
4010 4041
4010 4078
4010 4091
4010 4098
4011 4028
4011 4038
4011 4043
4011 4048
4011 4062
4011 4087
4011 4089
4012 4013
4012 4045
4012 4046
4012 4047
4012 4048
4012 4052
4012 4063
4012 4074
4012 4079
4012 4093
4012 4096
4013 4022
4013 4024
4013 4034
4013 4036
4013 4042
4013 4045
4013 4069
4013 4075
4013 4098
4014 4030
4014 4039
4014 4042
4014 4060
4014 4068
4014 4076
4014 4078
4015 4016
4015 4019
4015 4042
4015 4051
4015 4064
4015 4065
4015 4070
4015 4083
4015 4092
4015 4099
4016 4032
4016 4065
4016 4066
4016 4070
4016 4087
4016 4088
4016 4098
4017 4030
4017 4045
4017 4055
4017 4063
4017 4069
4017 4077
4017 4086
4017 4095
4017 4097
4017 4609
4018 4030
4018 4037
4018 4041
4018 4051
4018 4055
4018 4064
4019 4036
4019 4038
4019 4045
4019 4046
4019 4052
4019 4064
4019 4066
4019 4068
4019 4074
4019 4086
4019 4087
4019 4090
4019 4099
4020 4024
4020 4057
4020 4066
4020 4070
4020 4072
4020 4076
4020 4084
4021 4046
4021 4048
4021 4051
4021 4054
4021 4058
4021 4059
4021 4076
4022 4026
4022 4028
4022 4031
4022 4036
4022 4043
4022 4058
4022 4084
4022 4087
4023 4047
4023 4050
4023 4054
4023 4081
4023 4083
4023 4090
4023 4097
4024 4033
4024 4038
4024 4052
4024 4054
4024 4058
4024 4060
4024 4064
4024 4072
4024 4073
4024 4075
4024 4083
4024 4084
4025 4032
4025 4041
4025 4042
4025 4060
4025 4091
4026 4041
4026 4044
4026 4046
4026 4074
4026 4077
4026 4079
4027 4061
4027 4065
4027 4092
4027 4094
4027 4095
4027 4096
4028 4037
4028 4045
4028 4054
4028 4056
4028 4064
4028 4068
4028 4097
4028 4310
4029 4036
4029 4042
4029 4043
4029 4061
4029 4073
4029 4074
4029 4076
4029 4094
4029 4099
4030 4041
4030 4051
4030 4069
4030 4078
4031 4042
4031 4045
4031 4061
4031 4070
4031 4078
4032 4062
4033 4041
4033 4070
4033 4086
4033 4092
4034 4044
4034 4047
4034 4057
4034 4064
4034 4079
4034 4080
4034 4083
4034 4098
4035 4038
4035 4043
4035 4058
4035 4060
4035 4061
4035 4075
4035 4076
4035 4077
4035 4079
4035 4086
4036 4038
4036 4048
4036 4082
4036 4088
4037 4039
4037 4054
4037 4060
4037 4066
4037 4067
4037 4077
4037 4081
4037 4088
4037 4277
4038 4054
4038 4055
4038 4067
4038 4068
4038 4072
4038 4088
4038 4089
4038 4091
4038 4095
4039 4044
4039 4050
4039 4060
4039 4072
4039 4089
4039 4096
4039 4345
4040 4046
4040 4059
4040 4086
4041 4042
4041 4054
4041 4080
4041 4085
4041 4093
4042 4050
4042 4058
4042 4066
4042 4069
4042 4080
4042 4081
4042 4085
4042 4090
4042 4097
4043 4053
4043 4063
4043 4095
4044 4058
4044 4067
4044 4070
4045 4048
4045 4083
4045 4085
4045 4098
4046 4051
4046 4063
4046 4067
4046 4072
4047 4049
4047 4081
4048 4064
4048 4066
4048 4070
4048 4071
4048 4073
4048 4085
4048 4093
4048 4457
4049 4078
4049 4083
4050 4075
4050 4090
4050 4096
4051 4074
4051 4088
4051 4096
4052 4064
4052 4073
4052 4097
4053 4084
4053 4086
4053 4092
4053 4094
4053 4096
4054 4058
4054 4062
4054 4066
4054 4088
4054 4092
4055 4058
4055 4064
4055 4067
4055 4084
4056 4057
4056 4069
4056 4081
4057 4061
4057 4085
4057 4088
4057 4089
4057 4098
4058 4076
4058 4084
4059 4064
4059 4065
4059 4073
4059 4076
4059 4086
4059 4096
4060 4065
4060 4073
4060 4076
4060 4098
4061 4074
4061 4084
4061 4090
4061 4093
4062 4070
4062 4075
4062 4083
4062 4084
4062 4098
4063 4070
4063 4074
4063 4093
4063 4094
4063 4096
4064 4085
4064 4086
4064 4088
4065 4075
4065 4083
4065 4088
4066 4097
4066 4099
4067 4094
4068 4086
4068 4093
4068 4096
4069 4072
4070 4073
4070 4077
4071 4088
4072 4085
4073 4076
4073 4078
4073 4084
4073 4093
4073 4095
4074 4083
4074 4085
4074 4087
4074 4768
4075 4092
4076 4091
4076 4092
4077 4088
4078 4089
4078 4099
4079 4081
4079 4086
4079 4089
4080 4084
4080 4085
4080 4091
4080 4099
4083 4099
4084 4085
4084 4090
4084 4092
4085 4096
4086 4093
4087 4093
4087 4860
4088 4091
4088 4099
4089 4094
4090 4098
4091 4097
4092 4094
4092 4096
4095 4097
4095 4098
4100 4102
4100 4103
4100 4109
4100 4119
4100 4120
4100 4122
4100 4123
4100 4127
4100 4130
4100 4136
4100 4161
4100 4169
4101 4110
4101 4127
4101 4135
4101 4140
4101 4146
4101 4152
4101 4156
4101 4160
4101 4174
4101 4175
4101 4180
4102 4114
4102 4117
4102 4119
4102 4121
4102 4128
4102 4132
4102 4133
4102 4134
4102 4145
4102 4148
4102 4153
4102 4160
4102 4165
4102 4173
4102 4179
4102 4192
4102 4194
4102 4195
4102 4197
4103 4127
4103 4147
4103 4152
4103 4153
4103 4165
4103 4166
4104 4120
4104 4122
4104 4127
4104 4142
4104 4159
4104 4164
4104 4180
4105 4106
4105 4112
4105 4116
4105 4120
4105 4138
4105 4143
4105 4154
4105 4159
4105 4164
4105 4180
4105 4183
4105 4190
4105 4194
4106 4111
4106 4118
4106 4121
4106 4124
4106 4125
4106 4137
4106 4143
4106 4173
4107 4118
4107 4119
4107 4138
4107 4141
4107 4168
4107 4169
4107 4178
4107 4180
4107 4184
4108 4112
4108 4128
4108 4136
4108 4140
4108 4156
4108 4169
4108 4176
4108 4187
4108 4190
4108 4195
4108 4198
4109 4115
4109 4128
4109 4130
4109 4140
4109 4156
4109 4166
4109 4168
4109 4169
4109 4175
4109 4197
4109 4198
4110 4115
4110 4149
4110 4164
4110 4169
4110 4172
4110 4178
4110 4180
4110 4181
4110 4182
4110 4189
4110 4196
4111 4116
4111 4123
4111 4132
4111 4136
4111 4137
4111 4138
4111 4140
4111 4141
4111 4149
4111 4159
4111 4179
4111 4199
4112 4121
4112 4123
4112 4130
4112 4141
4112 4147
4112 4154
4112 4158
4112 4162
4112 4170
4112 4174
4112 4190
4113 4123
4113 4127
4113 4136
4113 4152
4113 4156
4113 4169
4113 4179
4113 4192
4113 4195
4114 4116
4114 4132
4114 4135
4114 4146
4114 4152
4114 4159
4114 4161
4114 4187
4114 4194
4114 4548
4115 4126
4115 4132
4115 4138
4115 4139
4115 4146
4115 4150
4115 4156
4115 4176
4115 4185
4115 4195
4116 4118
4116 4132
4116 4138
4116 4141
4116 4151
4116 4159
4116 4161
4116 4162
4116 4181
4116 4188
4117 4141
4117 4152
4117 4162
4117 4163
4117 4165
4117 4175
4117 4181
4117 4187
4117 4199
4118 4126
4118 4130
4118 4134
4118 4158
4118 4179
4118 4184
4118 4194
4118 4196
4119 4137
4119 4176
4120 4123
4120 4128
4120 4164
4120 4189
4120 4192
4120 4197
4120 4198
4121 4131
4121 4132
4121 4134
4121 4140
4121 4161
4121 4169
4121 4173
4121 4177
4121 4192
4121 4195
4121 4198
4122 4125
4122 4150
4122 4153
4122 4173
4122 4184
4122 4189
4122 4198
4123 4125
4123 4129
4123 4154
4123 4160
4123 4163
4123 4171
4123 4181
4123 4185
4123 4195
4124 4126
4124 4127
4124 4157
4124 4159
4124 4176
4124 4177
4124 4183
4124 4187
4124 4197
4125 4139
4125 4143
4125 4149
4125 4152
4125 4154
4125 4161
4125 4163
4126 4129
4126 4178
4126 4185
4126 4186
4126 4194
4127 4128
4127 4133
4127 4141
4127 4154
4127 4165
4127 4168
4127 4179
4127 4181
4127 4183
4127 4194
4128 4134
4128 4135
4128 4159
4128 4166
4128 4175
4129 4130
4129 4138
4129 4150
4129 4181
4129 4187
4129 4192
4130 4149
4130 4194
4130 4199
4131 4133
4131 4142
4131 4144
4131 4164
4131 4165
4131 4173
4131 4181
4131 4192
4132 4140
4132 4144
4132 4148
4132 4152
4132 4158
4132 4168
4132 4184
4132 4188
4133 4134
4133 4138
4133 4146
4133 4156
4133 4158
4133 4176
4133 4179
4133 4188
4134 4158
4134 4162
4134 4165
4134 4168
4134 4171
4135 4174
4135 4184
4135 4188
4136 4144
4136 4189
4137 4169
4137 4170
4137 4171
4137 4181
4137 4182
4137 4186
4137 4198
4138 4139
4138 4140
4138 4142
4138 4144
4138 4148
4138 4149
4138 4153
4138 4162
4138 4177
4138 4178
4138 4185
4138 4188
4138 4197
4139 4157
4139 4165
4139 4169
4139 4190
4139 4194
4139 4195
4140 4141
4140 4149
4140 4172
4140 4195
4140 4597
4141 4142
4141 4147
4141 4162
4141 4176
4141 4187
4141 4190
4141 4191
4141 4519
4142 4154
4142 4164
4142 4172
4142 4191
4142 4193
4142 4197
4143 4163
4143 4177
4143 4179
4143 4181
4143 4191
4143 4197
4144 4145
4144 4193
4145 4150
4145 4162
4145 4184
4145 4197
4146 4169
4146 4179
4147 4162
4147 4165
4147 4185
4147 4193
4147 4194
4148 4158
4148 4162
4148 4173
4148 4177
4148 4186
4149 4165
4149 4170
4149 4175
4149 4183
4149 4190
4150 4156
4150 4163
4150 4167
4150 4178
4150 4182
4150 4183
4151 4175
4151 4180
4151 4195
4152 4153
4152 4181
4152 4182
4152 4185
4153 4198
4154 4184
4154 4193
4155 4159
4155 4172
4155 4215
4156 4167
4156 4170
4156 4176
4156 4184
4157 4173
4157 4177
4157 4185
4157 4187
4157 4192
4157 4194
4157 4198
4158 4159
4158 4166
4158 4170
4158 4172
4158 4178
4158 4181
4158 4184
4159 4182
4159 4190
4159 4199
4160 4165
4160 4172
4160 4177
4160 4179
4160 4186
4160 4189
4160 4194
4161 4171
4161 4172
4161 4197
4162 4167
4162 4187
4162 4189
4162 4192
4162 4197
4163 4172
4163 4179
4163 4183
4163 4187
4163 4192
4163 4195
4164 4172
4164 4181
4164 4186
4164 4859
4165 4174
4165 4178
4165 4180
4165 4199
4166 4175
4166 4178
4166 4184
4166 4187
4166 4189
4166 4191
4167 4175
4167 4183
4167 4187
4167 4188
4167 4190
4168 4192
4169 4172
4169 4190
4169 4193
4169 4198
4170 4198
4171 4173
4171 4175
4171 4185
4172 4191
4173 4174
4174 4187
4174 4196
4174 4198
4175 4179
4175 4199
4176 4185
4176 4192
4177 4187
4178 4186
4178 4188
4178 4198
4179 4187
4182 4187
4182 4189
4184 4195
4185 4195
4185 4199
4186 4188
4188 4191
4189 4191
4189 4196
4190 4197
4192 4198
4195 4196
4195 4197
4195 4198
4196 4198
4200 4215
4200 4249
4200 4252
4200 4253
4200 4255
4200 4279
4200 4290
4201 4206
4201 4210
4201 4221
4201 4259
4201 4262
4202 4205
4202 4216
4202 4220
4202 4222
4202 4227
4202 4234
4202 4236
4202 4242
4202 4246
4202 4262
4202 4272
4202 4298
4202 4299
4203 4211
4203 4229
4203 4240
4203 4247
4203 4249
4203 4252
4203 4272
4203 4278
4203 4281
4203 4290
4203 4291
4204 4210
4204 4211
4204 4212
4204 4213
4204 4233
4204 4234
4204 4238
4204 4250
4204 4254
4204 4258
4204 4277
4204 4288
4204 4291
4205 4214
4205 4222
4205 4223
4205 4228
4205 4241
4205 4253
4205 4256
4205 4258
4205 4274
4206 4209
4206 4219
4206 4222
4206 4236
4206 4238
4206 4254
4206 4290
4206 4293
4206 4299
4207 4208
4207 4219
4207 4230
4207 4251
4207 4284
4208 4227
4208 4235
4208 4242
4208 4244
4208 4277
4208 4278
4208 4281
4208 4291
4209 4220
4209 4222
4209 4224
4209 4229
4209 4236
4209 4246
4209 4258
4209 4261
4209 4286
4209 4290
4210 4217
4210 4237
4210 4248
4210 4268
4210 4288
4210 4298
4211 4219
4211 4232
4211 4246
4211 4256
4211 4262
4211 4264
4211 4265
4211 4275
4211 4278
4211 4281
4211 4292
4211 4295
4212 4213
4212 4215
4212 4233
4212 4234
4212 4237
4212 4238
4212 4254
4212 4275
4212 4281
4212 4876
4213 4214
4213 4223
4213 4226
4213 4228
4213 4266
4213 4271
4213 4272
4213 4275
4213 4282
4213 4285
4213 4288
4213 4296
4214 4216
4214 4228
4214 4231
4214 4235
4214 4244
4214 4249
4214 4265
4214 4268
4214 4285
4214 4291
4215 4237
4215 4243
4215 4244
4215 4273
4215 4277
4215 4282
4216 4220
4216 4223
4216 4227
4216 4251
4216 4254
4216 4258
4216 4273
4216 4274
4216 4275
4216 4295
4217 4226
4217 4240
4217 4242
4217 4254
4217 4255
4217 4264
4217 4267
4217 4268
4217 4270
4217 4286
4217 4292
4217 4299
4218 4241
4218 4249
4218 4279
4218 4280
4218 4284
4219 4233
4219 4237
4219 4242
4219 4276
4219 4277
4220 4224
4220 4229
4220 4240
4220 4253
4220 4254
4220 4277
4220 4278
4220 4280
4220 4286
4220 4289
4220 4297
4221 4230
4221 4251
4221 4253
4221 4259
4221 4271
4221 4286
4221 4290
4221 4296
4222 4234
4222 4239
4222 4243
4222 4252
4222 4258
4222 4259
4222 4284
4223 4225
4223 4234
4223 4239
4223 4246
4223 4260
4223 4282
4224 4230
4224 4232
4224 4241
4224 4243
4224 4254
4224 4267
4224 4279
4224 4280
4224 4288
4224 4295
4224 4296
4224 4297
4225 4240
4225 4255
4225 4260
4225 4271
4225 4278
4225 4296
4226 4238
4226 4240
4226 4248
4226 4269
4226 4291
4227 4229
4227 4235
4227 4239
4227 4249
4227 4252
4227 4267
4227 4287
4227 4296
4228 4230
4228 4237
4228 4249
4229 4230
4229 4241
4229 4242
4229 4246
4229 4254
4229 4263
4229 4271
4229 4289
4229 4292
4229 4296
4230 4231
4230 4234
4230 4237
4230 4242
4230 4243
4230 4258
4230 4276
4231 4243
4231 4247
4231 4259
4231 4263
4231 4270
4231 4272
4231 4280
4231 4296
4232 4242
4232 4252
4232 4259
4232 4265
4232 4267
4232 4289
4232 4292
4232 4298
4233 4249
4233 4257
4233 4276
4233 4280
4233 4281
4233 4286
4233 4294
4233 4299
4234 4245
4234 4281
4234 4282
4234 4295
4235 4236
4235 4244
4235 4245
4235 4250
4235 4277
4235 4282
4235 4293
4235 4295
4235 4299
4236 4246
4236 4254
4236 4263
4236 4286
4236 4292
4236 4296
4236 4297
4237 4245
4237 4261
4237 4267
4238 4241
4238 4247
4238 4260
4238 4261
4238 4269
4238 4271
4238 4278
4238 4281
4238 4285
4238 4298
4239 4244
4239 4245
4239 4264
4239 4266
4239 4269
4239 4273
4239 4288
4240 4245
4240 4251
4240 4272
4241 4245
4241 4254
4241 4264
4241 4272
4241 4284
4241 4287
4242 4265
4242 4266
4242 4294
4243 4247
4243 4251
4243 4291
4243 4297
4244 4251
4244 4258
4244 4265
4244 4292
4244 4294
4244 4295
4245 4249
4245 4258
4245 4260
4245 4281
4245 4285
4245 4287
4245 4293
4245 4297
4245 4298
4246 4256
4246 4263
4246 4268
4246 4282
4246 4298
4247 4262
4247 4286
4247 4296
4248 4253
4248 4265
4248 4268
4248 4283
4248 4292
4248 4297
4249 4250
4249 4276
4249 4288
4250 4258
4250 4266
4250 4287
4250 4293
4251 4256
4251 4257
4251 4261
4251 4262
4251 4266
4252 4253
4252 4256
4252 4265
4252 4278
4252 4282
4252 4287
4253 4262
4253 4286
4253 4287
4253 4289
4253 4294
4254 4267
4254 4272
4254 4276
4254 4278
4254 4279
4254 4282
4254 4296
4255 4257
4255 4265
4255 4272
4255 4289
4255 4293
4256 4278
4256 4280
4257 4263
4257 4268
4257 4269
4257 4273
4257 4274
4257 4287
4257 4293
4257 4297
4258 4260
4258 4265
4258 4266
4258 4273
4258 4279
4258 4280
4258 4293
4259 4265
4259 4267
4259 4268
4259 4273
4259 4283
4259 4295
4259 4296
4259 4297
4260 4275
4260 4289
4260 4291
4260 4294
4260 4298
4261 4263
4261 4280
4261 4287
4261 4295
4262 4266
4262 4273
4262 4282
4262 4285
4262 4291
4262 4299
4263 4291
4263 4293
4264 4282
4264 4293
4264 4299
4265 4278
4265 4283
4265 4285
4265 4296
4266 4274
4266 4275
4266 4281
4266 4291
4266 4911
4267 4271
4267 4282
4267 4289
4267 4291
4268 4274
4268 4280
4268 4281
4268 4286
4268 4289
4269 4275
4269 4285
4270 4274
4270 4294
4271 4282
4271 4287
4271 4296
4271 4299
4272 4286
4272 4299
4274 4275
4274 4291
4274 4294
4274 4295
4274 4990
4275 4283
4275 4297
4276 4277
4276 4281
4276 4283
4276 4287
4276 4291
4276 4295
4277 4286
4277 4296
4278 4296
4279 4293
4281 4299
4282 4283
4282 4288
4282 4298
4283 4284
4284 4290
4285 4289
4285 4292
4285 4294
4285 4295
4286 4292
4290 4291
4290 4297
4290 4578
4292 4294
4292 4298
4292 4884
4300 4303
4300 4361
4300 4372
4300 4382
4300 4390
4301 4303
4301 4305
4301 4310
4301 4318
4301 4337
4301 4348
4301 4349
4301 4354
4301 4377
4301 4389
4301 4393
4302 4314
4302 4317
4302 4327
4302 4344
4302 4348
4302 4365
4302 4379
4302 4395
4303 4311
4303 4313
4303 4322
4303 4333
4303 4335
4303 4345
4303 4357
4303 4374
4303 4380
4303 4384
4303 4393
4303 4398
4303 4399
4304 4306
4304 4314
4304 4324
4304 4335
4304 4347
4304 4350
4304 4357
4304 4362
4304 4364
4304 4366
4304 4391
4304 4394
4305 4311
4305 4317
4305 4327
4305 4334
4305 4355
4305 4365
4305 4378
4305 4382
4305 4383
4306 4310
4306 4311
4306 4342
4306 4357
4306 4372
4306 4389
4307 4310
4307 4318
4307 4329
4307 4333
4307 4336
4307 4364
4307 4366
4307 4374
4307 4377
4307 4382
4308 4310
4308 4315
4308 4324
4308 4325
4308 4337
4308 4357
4308 4385
4308 4393
4308 4396
4309 4322
4309 4325
4309 4329
4309 4331
4309 4339
4309 4352
4309 4362
4309 4375
4309 4379
4309 4381
4310 4318
4310 4327
4310 4331
4310 4354
4310 4356
4310 4366
4310 4368
4310 4371
4310 4398
4311 4315
4311 4318
4311 4319
4311 4328
4311 4336
4311 4337
4311 4378
4311 4392
4312 4315
4312 4334
4312 4370
4312 4372
4312 4379
4312 4384
4312 4385
4313 4314
4313 4317
4313 4321
4313 4323
4313 4331
4313 4335
4313 4342
4313 4349
4313 4351
4313 4363
4313 4377
4313 4386
4313 4393
4313 4395
4313 4398
4314 4321
4314 4324
4314 4334
4314 4343
4314 4354
4314 4355
4314 4371
4314 4377
4314 4380
4314 4384
4314 4390
4314 4392
4314 4940
4315 4340
4315 4345
4315 4363
4315 4370
4315 4385
4315 4388
4316 4319
4316 4334
4316 4351
4316 4356
4316 4369
4316 4382
4316 4395
4317 4347
4317 4386
4317 4387
4318 4342
4318 4349
4318 4351
4318 4357
4318 4360
4318 4365
4318 4375
4318 4377
4319 4322
4319 4337
4319 4343
4319 4360
4319 4361
4319 4370
4319 4373
4319 4389
4320 4327
4320 4354
4320 4361
4320 4368
4320 4369
4320 4374
4320 4390
4320 4391
4320 4392
4321 4327
4321 4342
4321 4347
4321 4350
4321 4362
4321 4378
4321 4382
4321 4384
4321 4391
4321 4396
4322 4353
4322 4366
4322 4368
4322 4370
4322 4378
4322 4385
4322 4393
4322 4395
4323 4335
4323 4345
4323 4357
4323 4361
4323 4372
4323 4386
4323 4394
4323 4398
4324 4339
4324 4344
4324 4366
4324 4386
4324 4392
4325 4329
4325 4331
4325 4332
4325 4343
4325 4350
4325 4371
4325 4372
4325 4376
4325 4389
4325 4394
4326 4339
4326 4340
4326 4348
4326 4352
4326 4358
4326 4376
4326 4379
4327 4347
4327 4351
4327 4358
4327 4371
4327 4379
4327 4389
4327 4391
4327 4395
4328 4336
4328 4341
4328 4344
4328 4360
4328 4370
4328 4378
4328 4380
4328 4384
4328 4385
4328 4396
4329 4338
4329 4350
4329 4362
4329 4364
4329 4370
4329 4373
4329 4376
4329 4382
4329 4390
4330 4332
4330 4370
4330 4379
4330 4384
4330 4386
4330 4399
4331 4377
4332 4335
4332 4354
4332 4364
4332 4390
4333 4339
4333 4353
4333 4357
4333 4362
4333 4364
4333 4373
4333 4396
4334 4339
4334 4386
4335 4345
4335 4386
4336 4347
4336 4354
4336 4383
4336 4384
4336 4396
4337 4340
4337 4347
4337 4349
4337 4351
4337 4352
4337 4358
4337 4366
4337 4372
4337 4378
4337 4380
4337 4386
4337 4388
4337 4396
4337 4397
4338 4343
4338 4367
4338 4371
4339 4344
4339 4347
4339 4361
4339 4365
4339 4379
4339 4381
4339 4390
4339 4399
4340 4344
4340 4358
4340 4374
4340 4378
4340 4394
4341 4346
4341 4347
4341 4355
4341 4357
4341 4396
4342 4349
4342 4350
4342 4376
4342 4382
4342 4390
4343 4346
4343 4351
4343 4355
4343 4376
4343 4379
4343 4387
4343 4389
4343 4393
4344 4360
4344 4361
4344 4365
4344 4374
4344 4381
4344 4382
4345 4351
4345 4383
4346 4352
4346 4365
4346 4393
4347 4355
4347 4375
4347 4392
4348 4350
4348 4352
4348 4370
4348 4372
4348 4384
4348 4391
4348 4393
4349 4358
4349 4361
4349 4364
4349 4366
4349 4376
4349 4380
4350 4380
4351 4382
4352 4357
4352 4360
4352 4364
4352 4366
4352 4370
4352 4376
4352 4382
4352 4383
4353 4357
4353 4383
4353 4384
4354 4365
4354 4380
4354 4383
4354 4398
4355 4385
4355 4390
4355 4397
4356 4364
4356 4384
4356 4387
4356 4388
4357 4358
4357 4369
4357 4375
4357 4383
4357 4386
4358 4366
4358 4377
4358 4379
4358 4396
4359 4363
4359 4375
4359 4395
4360 4366
4360 4375
4360 4384
4360 4388
4360 4394
4361 4366
4361 4373
4361 4391
4361 4394
4362 4380
4362 4383
4362 4386
4362 4393
4363 4375
4363 4378
4363 4397
4364 4378
4364 4381
4364 4397
4364 4534
4365 4370
4365 4377
4365 4388
4366 4379
4367 4369
4367 4377
4367 4390
4367 4392
4368 4371
4368 4373
4368 4385
4368 4394
4369 4374
4370 4389
4371 4376
4371 4389
4371 4393
4371 4398
4372 4379
4372 4383
4372 4396
4373 4381
4373 4385
4373 4386
4373 4394
4374 4375
4374 4377
4374 4378
4374 4387
4375 4385
4375 4399
4376 4383
4376 4395
4377 4397
4378 4382
4378 4391
4378 4395
4379 4384
4379 4385
4379 4388
4379 4399
4380 4387
4380 4392
4380 4393
4380 4395
4380 4398
4381 4386
4381 4394
4381 4396
4383 4391
4383 4392
4383 4395
4384 4390
4385 4392
4388 4399
4390 4395
4390 4396
4391 4395
4391 4399
4392 4399
4393 4745
4394 4398
4400 4408
4400 4426
4400 4448
4400 4459
4400 4467
4400 4473
4400 4483
4400 4491
4401 4404
4401 4422
4401 4428
4401 4462
4401 4469
4401 4482
4401 4485
4401 4489
4401 4491
4401 4497
4402 4407
4402 4413
4402 4414
4402 4419
4402 4430
4402 4432
4402 4440
4402 4466
4402 4473
4402 4487
4402 4497
4402 4498
4403 4406
4403 4416
4403 4420
4403 4441
4403 4446
4403 4451
4403 4473
4403 4486
4403 4487
4403 4489
4403 4491
4404 4405
4404 4406
4404 4418
4404 4427
4404 4448
4404 4449
4404 4477
4404 4481
4404 4493
4405 4411
4405 4413
4405 4417
4405 4418
4405 4421
4405 4435
4405 4444
4405 4445
4405 4446
4405 4449
4405 4457
4405 4466
4405 4469
4405 4499
4406 4410
4406 4419
4406 4462
4406 4482
4406 4483
4406 4484
4406 4496
4407 4424
4407 4436
4407 4446
4407 4458
4407 4469
4407 4476
4408 4409
4408 4420
4408 4448
4408 4454
4408 4457
4408 4459
4408 4477
4408 4483
4408 4904
4409 4419
4409 4425
4409 4427
4409 4428
4409 4434
4409 4437
4409 4459
4409 4462
4409 4464
4409 4477
4409 4478
4409 4480
4409 4493
4410 4414
4410 4440
4410 4456
4410 4473
4410 4478
4410 4490
4411 4434
4411 4439
4411 4442
4411 4443
4411 4450
4411 4466
4411 4471
4411 4472
4411 4477
4411 4487
4411 4489
4412 4431
4412 4464
4412 4474
4412 4477
4412 4478
4412 4485
4412 4494
4412 4497
4413 4417
4413 4419
4413 4423
4413 4425
4413 4430
4413 4439
4413 4441
4413 4451
4413 4452
4413 4454
4413 4463
4413 4485
4413 4491
4414 4420
4414 4423
4414 4424
4414 4427
4414 4456
4414 4486
4414 4496
4415 4431
4415 4471
4415 4490
4416 4429
4416 4433
4416 4438
4416 4444
4416 4460
4416 4466
4416 4472
4416 4474
4416 4480
4416 4490
4417 4431
4417 4440
4417 4474
4417 4492
4417 4495
4418 4425
4418 4447
4418 4451
4418 4460
4418 4473
4418 4480
4418 4499
4419 4421
4419 4423
4419 4440
4419 4466
4419 4469
4419 4481
4419 4493
4419 4494
4419 4497
4420 4430
4420 4436
4420 4438
4420 4447
4420 4454
4420 4480
4420 4487
4421 4422
4421 4431
4421 4449
4421 4451
4421 4453
4421 4459
4421 4498
4422 4449
4422 4470
4422 4492
4422 4496
4423 4429
4423 4448
4423 4450
4423 4451
4423 4456
4423 4468
4423 4491
4424 4444
4424 4450
4424 4451
4424 4462
4424 4472
4424 4473
4424 4481
4424 4486
4425 4441
4425 4455
4425 4461
4425 4470
4425 4487
4425 4488
4425 4489
4425 4494
4426 4432
4426 4436
4426 4444
4426 4449
4426 4453
4426 4457
4426 4460
4426 4476
4426 4479
4426 4489
4426 4490
4426 4491
4426 4496
4427 4431
4427 4459
4427 4460
4427 4462
4427 4471
4427 4484
4427 4488
4427 4489
4427 4491
4428 4443
4428 4448
4428 4453
4428 4455
4428 4457
4428 4469
4428 4479
4429 4439
4429 4448
4429 4451
4430 4431
4430 4432
4430 4438
4430 4467
4430 4469
4430 4480
4431 4462
4431 4470
4431 4476
4431 4490
4432 4439
4432 4468
4432 4483
4433 4434
4433 4443
4433 4451
4433 4472
4433 4479
4433 4483
4433 4484
4433 4499
4434 4442
4434 4448
4434 4458
4434 4461
4434 4473
4434 4495
4435 4442
4435 4446
4435 4449
4435 4455
4435 4490
4435 4491
4436 4439
4436 4440
4436 4443
4436 4447
4436 4454
4436 4478
4436 4490
4437 4451
4437 4459
4437 4461
4437 4465
4437 4470
4437 4475
4437 4485
4438 4455
4438 4456
4438 4461
4438 4476
4438 4483
4438 4487
4438 4493
4439 4447
4439 4450
4439 4455
4439 4456
4439 4469
4439 4476
4439 4478
4439 4480
4439 4488
4440 4464
4440 4466
4440 4467
4440 4480
4440 4482
4440 4492
4441 4452
4441 4453
4441 4460
4441 4473
4441 4481
4441 4486
4441 4488
4441 4491
4442 4461
4442 4463
4442 4489
4443 4446
4443 4450
4443 4454
4443 4455
4443 4464
4443 4466
4443 4475
4443 4496
4444 4450
4444 4470
4444 4473
4444 4484
4445 4452
4445 4456
4445 4472
4445 4479
4445 4499
4445 4555
4446 4458
4446 4465
4446 4473
4446 4475
4446 4478
4446 4481
4446 4484
4446 4494
4446 4499
4447 4459
4447 4460
4447 4476
4447 4491
4447 4494
4448 4459
4448 4465
4448 4467
4448 4470
4448 4484
4449 4450
4449 4454
4449 4473
4449 4477
4449 4479
4449 4480
4449 4484
4450 4452
4450 4454
4450 4470
4450 4479
4450 4480
4450 4481
4450 4498
4451 4461
4451 4475
4451 4497
4451 4575
4452 4456
4452 4461
4452 4475
4452 4489
4453 4459
4453 4464
4453 4476
4453 4477
4453 4480
4453 4494
4454 4460
4454 4462
4454 4485
4454 4486
4454 4489
4454 4490
4455 4456
4455 4465
4455 4474
4455 4485
4455 4496
4456 4457
4456 4469
4456 4472
4456 4477
4456 4494
4456 4495
4456 4713
4457 4470
4457 4480
4457 4492
4457 4726
4458 4463
4458 4475
4458 4493
4458 4494
4459 4462
4459 4472
4459 4475
4459 4493
4459 4495
4460 4471
4460 4473
4460 4478
4460 4489
4460 4499
4461 4463
4461 4466
4461 4472
4461 4480
4461 4486
4461 4487
4461 4488
4461 4493
4462 4463
4462 4472
4462 4489
4463 4467
4463 4471
4463 4486
4463 4489
4464 4475
4464 4494
4467 4469
4467 4473
4467 4486
4467 4493
4468 4470
4468 4474
4469 4479
4469 4481
4469 4489
4469 4498
4470 4471
4470 4472
4470 4473
4470 4496
4471 4475
4471 4484
4471 4485
4471 4495
4472 4490
4472 4497
4473 4474
4473 4484
4473 4489
4474 4481
4475 4479
4475 4498
4476 4485
4476 4486
4476 4489
4476 4491
4477 4492
4477 4499
4478 4486
4479 4484
4479 4494
4480 4483
4480 4485
4483 4497
4483 4955
4484 4497
4485 4490
4485 4491
4487 4490
4487 4955
4488 4490
4488 4495
4488 4496
4489 4493
4490 4497
4490 4498
4495 4497
4500 4518
4500 4530
4500 4532
4500 4537
4500 4540
4500 4553
4500 4561
4500 4567
4500 4569
4500 4575
4500 4580
4500 4584
4501 4522
4501 4527
4501 4529
4501 4544
4501 4549
4501 4553
4502 4532
4502 4534
4502 4586
4502 4595
4502 4597
4502 4748
4503 4519
4503 4522
4503 4527
4503 4536
4503 4539
4503 4554
4503 4563
4503 4564
4503 4583
4504 4505
4504 4517
4504 4519
4504 4538
4504 4539
4504 4553
4504 4565
4504 4567
4504 4572
4504 4582
4505 4515
4505 4525
4505 4533
4505 4547
4505 4551
4505 4552
4505 4568
4505 4585
4505 4590
4506 4511
4506 4538
4506 4539
4506 4543
4506 4571
4506 4573
4506 4576
4506 4580
4506 4584
4506 4590
4506 4593
4506 4596
4507 4515
4507 4519
4507 4525
4507 4527
4507 4533
4507 4538
4507 4543
4507 4549
4507 4562
4507 4584
4507 4593
4507 4595
4508 4509
4508 4520
4508 4521
4508 4523
4508 4530
4508 4565
4508 4568
4508 4572
4508 4573
4508 4591
4508 4594
4509 4527
4509 4576
4509 4585
4509 4590
4509 4595
4509 4599
4510 4522
4510 4525
4510 4534
4510 4568
4510 4575
4510 4576
4511 4512
4511 4519
4511 4538
4511 4540
4511 4543
4511 4545
4511 4554
4511 4561
4511 4582
4511 4595
4512 4522
4512 4523
4512 4524
4512 4570
4512 4571
4512 4574
4512 4575
4512 4582
4512 4588
4513 4524
4513 4526
4513 4539
4513 4543
4513 4548
4513 4549
4513 4556
4513 4564
4513 4575
4513 4581
4513 4582
4513 4593
4514 4516
4514 4530
4514 4554
4514 4587
4515 4519
4515 4525
4515 4537
4515 4538
4515 4539
4515 4553
4515 4565
4515 4580
4515 4583
4516 4553
4516 4563
4516 4567
4516 4570
4516 4578
4516 4587
4517 4526
4517 4528
4517 4534
4517 4544
4517 4549
4517 4557
4517 4581
4517 4583
4517 4591
4517 4595
4517 4596
4518 4530
4518 4550
4518 4559
4518 4567
4518 4571
4518 4577
4518 4579
4518 4596
4518 4598
4519 4524
4519 4546
4519 4561
4519 4569
4519 4576
4519 4581
4519 4584
4520 4536
4520 4540
4520 4549
4520 4554
4520 4560
4520 4562
4520 4569
4520 4570
4520 4573
4520 4593
4521 4523
4521 4531
4521 4550
4521 4560
4521 4574
4521 4576
4521 4580
4521 4581
4522 4547
4522 4554
4522 4556
4522 4567
4522 4572
4522 4585
4522 4593
4523 4534
4523 4538
4523 4539
4523 4544
4523 4546
4523 4565
4523 4566
4523 4569
4523 4590
4523 4596
4524 4526
4524 4568
4524 4570
4524 4576
4524 4587
4524 4589
4525 4529
4525 4548
4525 4559
4525 4560
4525 4567
4525 4580
4525 4587
4526 4532
4526 4534
4526 4545
4526 4546
4526 4549
4526 4550
4526 4560
4526 4585
4526 4595
4527 4532
4527 4537
4527 4547
4527 4549
4527 4550
4527 4555
4527 4556
4527 4558
4527 4570
4527 4573
4527 4583
4528 4534
4528 4537
4528 4539
4528 4542
4528 4548
4528 4559
4528 4589
4528 4590
4529 4539
4529 4542
4529 4551
4529 4554
4529 4557
4529 4560
4529 4564
4529 4573
4529 4589
4529 4596
4530 4531
4530 4542
4530 4556
4530 4579
4530 4581
4530 4582
4530 4592
4531 4542
4531 4550
4531 4555
4531 4560
4531 4564
4531 4580
4531 4581
4531 4586
4531 4587
4531 4597
4531 4599
4532 4533
4532 4535
4532 4554
4532 4586
4532 4589
4532 4891
4533 4565
4533 4581
4533 4582
4533 4591
4534 4538
4534 4542
4534 4546
4534 4562
4534 4581
4534 4584
4534 4586
4534 4588
4535 4546
4535 4556
4535 4561
4535 4570
4535 4571
4535 4575
4535 4578
4535 4590
4535 4598
4536 4552
4536 4557
4536 4571
4536 4574
4536 4576
4536 4587
4536 4597
4537 4551
4537 4565
4537 4577
4537 4589
4538 4539
4538 4550
4538 4552
4538 4554
4538 4558
4538 4564
4538 4568
4539 4546
4539 4549
4539 4563
4539 4569
4539 4571
4539 4573
4539 4580
4539 4590
4539 4591
4539 4599
4540 4546
4540 4548
4540 4553
4540 4554
4540 4560
4540 4564
4540 4565
4540 4569
4540 4574
4540 4580
4540 4581
4540 4599
4541 4549
4541 4551
4541 4568
4541 4591
4541 4596
4541 4968
4542 4551
4542 4557
4542 4579
4542 4581
4542 4591
4542 4592
4543 4545
4543 4557
4543 4581
4543 4591
4543 4599
4544 4548
4544 4549
4544 4557
4544 4565
4544 4583
4544 4590
4545 4565
4545 4569
4545 4572
4545 4587
4545 4592
4545 4597
4546 4564
4546 4569
4546 4574
4546 4595
4547 4570
4547 4572
4547 4584
4548 4556
4548 4575
4548 4576
4548 4581
4548 4590
4548 4599
4549 4552
4549 4560
4549 4577
4550 4554
4550 4571
4550 4573
4550 4580
4550 4584
4550 4593
4551 4552
4551 4559
4551 4566
4551 4569
4551 4575
4551 4594
4552 4558
4552 4582
4552 4591
4552 4593
4553 4557
4553 4561
4553 4562
4553 4571
4553 4594
4553 4597
4554 4560
4554 4561
4554 4584
4555 4565
4555 4570
4555 4572
4555 4581
4555 4590
4556 4579
4556 4581
4556 4585
4556 4591
4557 4582
4557 4587
4557 4591
4557 4598
4558 4564
4558 4572
4558 4597
4559 4573
4559 4589
4559 4593
4559 4597
4560 4580
4560 4596
4561 4564
4561 4591
4562 4575
4562 4578
4562 4593
4562 4597
4563 4565
4563 4588
4563 4594
4564 4566
4564 4570
4564 4571
4564 4584
4564 4588
4565 4575
4565 4591
4566 4571
4566 4594
4567 4578
4568 4570
4568 4595
4568 4989
4569 4583
4569 4591
4570 4572
4570 4889
4571 4587
4571 4593
4571 4594
4572 4576
4572 4577
4572 4579
4572 4585
4573 4578
4573 4587
4574 4593
4575 4577
4575 4585
4576 4582
4576 4585
4577 4578
4577 4580
4577 4587
4578 4587
4578 4597
4579 4585
4579 4587
4579 4588
4580 4589
4580 4590
4581 4584
4581 4596
4582 4595
4582 4599
4583 4598
4584 4587
4584 4589
4585 4595
4586 4598
4586 4890
4587 4589
4589 4593
4590 4598
4592 4594
4592 4598
4594 4599
4600 4606
4600 4610
4600 4612
4600 4615
4600 4622
4600 4630
4600 4635
4600 4641
4600 4644
4600 4664
4600 4665
4600 4677
4600 4679
4601 4604
4601 4605
4601 4628
4601 4633
4601 4647
4601 4653
4601 4654
4601 4655
4601 4662
4601 4665
4601 4672
4601 4679
4601 4685
4601 4692
4601 4693
4602 4610
4602 4614
4602 4621
4602 4625
4602 4633
4602 4659
4602 4665
4602 4681
4602 4689
4602 4926
4603 4612
4603 4618
4603 4619
4603 4655
4603 4662
4603 4676
4603 4687
4603 4694
4604 4628
4604 4639
4604 4647
4604 4661
4604 4680
4604 4959
4605 4613
4605 4629
4605 4637
4605 4645
4605 4646
4605 4659
4605 4663
4605 4670
4605 4672
4606 4608
4606 4625
4606 4635
4606 4648
4606 4662
4606 4680
4606 4695
4607 4624
4607 4627
4607 4629
4607 4635
4607 4666
4607 4672
4607 4678
4607 4679
4607 4689
4607 4694
4608 4625
4608 4630
4608 4649
4608 4656
4608 4659
4608 4665
4608 4667
4608 4669
4608 4676
4608 4687
4609 4630
4609 4637
4609 4649
4609 4674
4610 4623
4610 4650
4610 4656
4610 4662
4610 4683
4610 4686
4610 4688
4611 4634
4611 4640
4611 4647
4611 4681
4611 4688
4612 4618
4612 4631
4612 4652
4612 4677
4612 4694
4612 4698
4613 4635
4613 4642
4613 4649
4613 4659
4613 4665
4613 4671
4613 4674
4613 4679
4613 4697
4614 4616
4614 4617
4614 4634
4614 4646
4614 4649
4614 4654
4614 4679
4614 4699
4614 4793
4615 4629
4615 4639
4615 4662
4615 4663
4615 4672
4615 4675
4615 4678
4615 4684
4615 4693
4616 4618
4616 4620
4616 4627
4616 4647
4616 4649
4616 4652
4616 4657
4616 4674
4616 4676
4616 4678
4616 4698
4617 4623
4617 4624
4617 4634
4617 4645
4617 4653
4617 4655
4617 4656
4617 4658
4617 4663
4617 4664
4617 4698
4618 4632
4618 4659
4618 4677
4618 4679
4618 4769
4619 4625
4619 4629
4619 4648
4619 4660
4619 4663
4619 4696
4619 4699
4620 4628
4620 4637
4620 4638
4620 4643
4620 4648
4620 4663
4620 4679
4620 4690
4621 4626
4621 4634
4621 4637
4621 4639
4621 4640
4621 4642
4621 4664
4621 4675
4621 4687
4621 4693
4621 4695
4622 4647
4622 4672
4622 4675
4622 4677
4622 4680
4622 4685
4623 4634
4623 4635
4623 4641
4623 4643
4623 4647
4623 4661
4623 4674
4623 4679
4623 4692
4623 4697
4624 4625
4624 4631
4624 4670
4624 4679
4624 4682
4624 4688
4624 4690
4624 4697
4624 4698
4625 4634
4625 4635
4625 4636
4625 4645
4625 4676
4625 4686
4625 4688
4625 4689
4625 4697
4625 4698
4626 4641
4626 4667
4626 4674
4627 4647
4627 4678
4627 4680
4628 4637
4628 4643
4628 4647
4628 4654
4628 4676
4628 4678
4628 4690
4628 4691
4628 4692
4629 4632
4629 4639
4629 4641
4629 4647
4629 4652
4629 4660
4629 4682
4629 4690
4629 4696
4629 4697
4630 4654
4630 4674
4630 4676
4630 4688
4630 4695
4630 4698
4630 4699
4631 4644
4631 4649
4631 4653
4631 4654
4631 4656
4631 4667
4631 4671
4631 4673
4631 4674
4631 4681
4631 4692
4632 4634
4632 4643
4632 4650
4632 4677
4632 4685
4632 4688
4632 4695
4632 4836
4633 4634
4633 4638
4633 4641
4633 4666
4633 4669
4633 4682
4633 4689
4634 4647
4634 4656
4634 4688
4634 4691
4634 4697
4635 4665
4635 4676
4635 4684
4636 4655
4636 4668
4636 4671
4636 4675
4636 4676
4636 4680
4636 4699
4637 4649
4637 4650
4637 4651
4637 4662
4637 4667
4637 4696
4638 4651
4638 4655
4638 4656
4638 4658
4638 4666
4638 4678
4638 4679
4638 4687
4638 4688
4638 4691
4639 4642
4639 4656
4639 4675
4639 4678
4640 4642
4640 4663
4640 4679
4641 4645
4641 4647
4641 4660
4641 4670
4641 4674
4641 4684
4642 4651
4642 4655
4642 4691
4643 4666
4643 4684
4643 4690
4643 4695
4644 4647
4644 4693
4644 4697
4645 4652
4645 4667
4645 4670
4645 4673
4645 4683
4645 4694
4646 4649
4646 4674
4646 4685
4646 4688
4647 4651
4647 4661
4647 4663
4647 4669
4647 4672
4647 4687
4647 4690
4647 4691
4647 4692
4647 4696
4648 4649
4648 4651
4648 4653
4648 4654
4648 4666
4648 4672
4648 4678
4648 4680
4648 4681
4648 4682
4648 4698
4649 4669
4649 4674
4649 4679
4649 4684
4649 4693
4649 4694
4650 4657
4650 4677
4650 4679
4650 4682
4651 4676
4651 4679
4651 4681
4651 4683
4651 4686
4652 4660
4652 4664
4652 4681
4652 4692
4653 4667
4653 4680
4653 4681
4654 4657
4654 4690
4656 4666
4656 4667
4656 4691
4656 4698
4657 4667
4657 4676
4657 4682
4657 4692
4657 4693
4658 4677
4658 4693
4659 4666
4659 4678
4659 4684
4659 4690
4660 4666
4660 4667
4660 4671
4660 4673
4660 4674
4660 4679
4660 4684
4660 4699
4661 4666
4661 4668
4661 4692
4661 4693
4662 4665
4662 4673
4662 4679
4663 4679
4664 4671
4664 4677
4664 4689
4665 4666
4665 4673
4665 4675
4665 4677
4665 4680
4665 4696
4665 4697
4666 4667
4666 4673
4666 4693
4667 4671
4667 4673
4667 4675
4667 4688
4667 4698
4668 4676
4668 4695
4668 4697
4669 4677
4669 4680
4669 4689
4670 4675
4670 4696
4671 4673
4671 4692
4672 4693
4673 4693
4674 4683
4674 4688
4674 4692
4675 4676
4675 4681
4675 4683
4675 4686
4676 4677
4676 4681
4676 4693
4676 4694
4676 4695
4677 4680
4678 4679
4678 4687
4678 4691
4678 4698
4679 4682
4679 4687
4679 4698
4680 4684
4680 4688
4680 4694
4680 4695
4682 4689
4683 4692
4683 4697
4684 4698
4685 4696
4685 4699
4686 4688
4686 4689
4688 4690
4688 4692
4689 4690
4690 4691
4690 4699
4691 4693
4691 4694
4691 4698
4692 4693
4694 4695
4700 4731
4700 4741
4700 4747
4700 4765
4700 4770
4700 4772
4700 4780
4700 4794
4700 4797
4701 4709
4701 4716
4701 4726
4701 4748
4701 4750
4701 4765
4701 4776
4701 4780
4701 4786
4701 4794
4701 4795
4702 4731
4702 4742
4702 4744
4702 4747
4702 4749
4702 4752
4702 4754
4702 4757
4702 4775
4702 4782
4702 4783
4703 4705
4703 4728
4703 4735
4703 4741
4703 4743
4703 4758
4703 4764
4703 4765
4703 4766
4703 4771
4703 4772
4704 4711
4704 4744
4704 4748
4704 4752
4704 4762
4704 4769
4704 4775
4704 4781
4704 4794
4705 4715
4705 4716
4705 4761
4705 4765
4705 4770
4705 4777
4705 4778
4705 4781
4705 4792
4705 4793
4705 4795
4706 4709
4706 4729
4706 4730
4706 4742
4706 4752
4706 4765
4706 4773
4706 4789
4707 4713
4707 4718
4707 4751
4707 4759
4707 4766
4707 4786
4707 4797
4708 4724
4708 4734
4708 4740
4708 4743
4708 4748
4708 4749
4708 4752
4708 4755
4708 4769
4708 4773
4708 4785
4708 4790
4709 4715
4709 4718
4709 4732
4709 4735
4709 4736
4709 4739
4709 4776
4709 4786
4709 4788
4709 4793
4710 4720
4710 4735
4710 4748
4710 4750
4710 4763
4710 4799
4711 4713
4711 4715
4711 4716
4711 4720
4711 4753
4711 4765
4711 4777
4711 4778
4711 4783
4711 4790
4712 4728
4712 4729
4712 4735
4712 4743
4712 4753
4712 4780
4712 4784
4712 4793
4712 4799
4713 4725
4713 4727
4713 4742
4713 4743
4713 4765
4713 4768
4713 4783
4713 4792
4713 4798
4714 4719
4714 4720
4714 4725
4714 4733
4714 4741
4714 4743
4714 4750
4714 4755
4714 4758
4714 4763
4714 4765
4714 4771
4714 4774
4714 4784
4714 4788
4714 4789
4714 4793
4714 4795
4715 4722
4715 4725
4715 4732
4715 4742
4715 4753
4715 4761
4715 4765
4715 4774
4715 4775
4715 4782
4715 4788
4716 4729
4716 4730
4716 4766
4716 4778
4717 4723
4717 4728
4717 4733
4717 4747
4717 4771
4717 4773
4717 4785
4717 4793
4717 4822
4718 4723
4718 4727
4718 4742
4718 4760
4718 4767
4718 4799
4719 4736
4719 4747
4719 4759
4719 4760
4719 4773
4719 4792
4719 4796
4720 4741
4720 4751
4720 4766
4720 4778
4720 4787
4720 4789
4721 4722
4721 4746
4721 4751
4721 4770
4721 4786
4721 4789
4721 4796
4722 4752
4722 4767
4722 4770
4722 4774
4722 4782
4722 4795
4723 4725
4723 4737
4723 4746
4723 4757
4723 4772
4723 4786
4723 4796
4724 4734
4724 4768
4724 4778
4724 4779
4724 4787
4724 4790
4724 4792
4725 4730
4725 4737
4725 4739
4725 4781
4725 4787
4725 4795
4726 4728
4726 4739
4726 4777
4726 4779
4726 4788
4727 4733
4727 4738
4727 4740
4727 4752
4727 4753
4727 4760
4727 4762
4727 4765
4727 4792
4727 4797
4728 4733
4728 4748
4728 4755
4728 4764
4728 4771
4728 4774
4728 4779
4728 4799
4729 4739
4729 4756
4729 4771
4729 4773
4729 4780
4730 4737
4730 4745
4730 4755
4730 4758
4730 4775
4730 4787
4731 4740
4731 4741
4731 4758
4731 4770
4731 4776
4731 4784
4731 4792
4731 4794
4732 4761
4732 4767
4732 4779
4732 4780
4732 4786
4733 4737
4733 4738
4733 4748
4733 4751
4733 4768
4733 4780
4733 4782
4734 4739
4734 4752
4734 4772
4734 4775
4734 4777
4734 4783
4734 4787
4734 4788
4734 4797
4735 4740
4735 4742
4735 4753
4735 4758
4735 4791
4735 4794
4735 4884
4736 4751
4736 4760
4736 4767
4736 4775
4736 4782
4736 4785
4736 4793
4737 4776
4737 4790
4737 4796
4738 4782
4738 4789
4738 4792
4738 4798
4739 4744
4739 4769
4739 4778
4739 4779
4739 4780
4739 4782
4739 4792
4740 4754
4740 4761
4740 4762
4740 4778
4740 4787
4741 4744
4741 4763
4741 4769
4742 4748
4742 4753
4742 4756
4742 4760
4742 4767
4742 4781
4742 4782
4742 4794
4743 4760
4743 4768
4743 4798
4744 4775
4744 4778
4745 4763
4745 4779
4745 4780
4745 4781
4745 4789
4745 4794
4746 4752
4746 4756
4746 4778
4746 4796
4746 4797
4747 4755
4747 4759
4747 4764
4747 4773
4747 4788
4747 4789
4747 4797
4748 4760
4748 4775
4748 4778
4748 4781
4748 4787
4748 4798
4749 4755
4749 4763
4749 4780
4749 4791
4750 4758
4750 4764
4750 4783
4750 4785
4751 4759
4751 4761
4751 4775
4751 4798
4752 4755
4752 4757
4752 4771
4752 4778
4752 4780
4752 4792
4752 4794
4753 4755
4753 4759
4753 4761
4753 4772
4754 4766
4754 4775
4754 4777
4754 4785
4755 4760
4755 4765
4755 4773
4755 4777
4755 4781
4755 4782
4755 4795
4756 4761
4756 4779
4756 4783
4756 4784
4756 4789
4756 4793
4756 4794
4757 4764
4757 4770
4757 4775
4757 4777
4757 4783
4757 4785
4757 4790
4757 4791
4758 4794
4758 4797
4759 4770
4759 4771
4759 4797
4760 4793
4761 4769
4762 4765
4762 4784
4762 4795
4763 4767
4763 4772
4763 4784
4763 4793
4763 4794
4763 4982
4764 4783
4764 4788
4764 4795
4765 4776
4765 4780
4765 4781
4765 4785
4765 4795
4766 4768
4766 4770
4766 4779
4766 4784
4766 4797
4767 4770
4767 4786
4767 4794
4768 4773
4768 4782
4768 4783
4768 4786
4768 4797
4769 4771
4769 4772
4769 4785
4769 4792
4769 4799
4770 4771
4770 4780
4770 4782
4770 4784
4771 4779
4771 4782
4771 4785
4772 4778
4772 4791
4772 4796
4774 4781
4775 4778
4775 4792
4775 4795
4776 4781
4776 4782
4776 4787
4776 4792
4776 4796
4776 4798
4777 4796
4778 4785
4778 4798
4778 4799
4779 4787
4780 4784
4780 4791
4780 4792
4780 4794
4781 4786
4782 4798
4783 4787
4783 4788
4784 4785
4786 4795
4790 4799
4792 4797
4793 4799
4800 4807
4800 4817
4800 4834
4800 4839
4800 4855
4800 4863
4800 4864
4800 4866
4800 4868
4800 4873
4800 4877
4800 4889
4800 4896
4801 4802
4801 4807
4801 4815
4801 4831
4801 4862
4801 4884
4801 4890
4802 4829
4802 4856
4802 4866
4802 4881
4803 4804
4803 4806
4803 4815
4803 4826
4803 4842
4803 4845
4803 4847
4803 4852
4803 4866
4803 4872
4803 4881
4803 4892
4803 4894
4804 4806
4804 4815
4804 4820
4804 4826
4804 4833
4804 4844
4804 4847
4804 4860
4804 4862
4804 4880
4804 4894
4805 4806
4805 4808
4805 4809
4805 4826
4805 4827
4805 4835
4805 4851
4805 4863
4805 4867
4805 4868
4805 4882
4805 4883
4805 4895
4805 4896
4806 4809
4806 4813
4806 4820
4806 4827
4806 4837
4806 4840
4806 4846
4806 4859
4806 4862
4806 4865
4806 4879
4806 4896
4806 4975
4807 4809
4807 4831
4807 4834
4807 4836
4807 4862
4807 4878
4807 4884
4807 4892
4807 4895
4808 4823
4808 4837
4808 4838
4808 4854
4808 4871
4808 4892
4808 4893
4809 4819
4809 4832
4809 4835
4809 4838
4809 4844
4809 4853
4809 4878
4809 4887
4810 4813
4810 4815
4810 4833
4810 4835
4810 4859
4810 4885
4810 4886
4810 4890
4811 4825
4811 4830
4811 4869
4811 4870
4811 4888
4811 4896
4812 4820
4812 4821
4812 4836
4812 4838
4812 4871
4812 4890
4813 4819
4813 4826
4813 4829
4813 4835
4813 4843
4813 4847
4813 4869
4813 4877
4813 4880
4813 4884
4813 4895
4814 4817
4814 4826
4814 4827
4814 4835
4814 4842
4814 4844
4814 4873
4814 4875
4814 4895
4815 4822
4815 4824
4815 4826
4815 4843
4815 4869
4815 4880
4816 4827
4816 4844
4816 4846
4816 4863
4816 4869
4817 4819
4817 4844
4817 4849
4817 4878
4817 4887
4817 4889
4817 4892
4818 4834
4818 4841
4818 4865
4818 4867
4818 4871
4818 4876
4818 4878
4818 4886
4818 4897
4819 4826
4819 4836
4819 4843
4819 4844
4819 4859
4819 4864
4819 4874
4819 4875
4820 4829
4820 4835
4820 4840
4820 4848
4820 4850
4820 4858
4820 4875
4820 4879
4820 4886
4820 4896
4820 4899
4821 4829
4821 4831
4821 4840
4821 4842
4821 4862
4821 4863
4821 4869
4821 4897
4822 4854
4822 4859
4822 4861
4822 4870
4822 4873
4822 4877
4822 4883
4822 4887
4823 4828
4823 4834
4823 4841
4823 4845
4823 4847
4823 4892
4824 4832
4824 4847
4824 4852
4824 4859
4824 4865
4824 4869
4824 4889
4825 4831
4825 4834
4825 4846
4825 4848
4825 4857
4825 4860
4825 4862
4825 4869
4825 4874
4825 4891
4826 4841
4826 4845
4826 4848
4826 4850
4826 4872
4826 4893
4827 4832
4827 4851
4827 4884
4827 4888
4827 4895
4828 4874
4828 4876
4828 4882
4828 4892
4828 4897
4829 4853
4829 4860
4829 4871
4829 4898
4830 4847
4830 4854
4830 4864
4830 4867
4830 4884
4830 4885
4830 4887
4830 4888
4830 4891
4830 4897
4831 4834
4831 4841
4831 4854
4831 4867
4831 4881
4831 4882
4832 4840
4832 4863
4832 4873
4832 4879
4832 4896
4832 4898
4833 4837
4833 4855
4833 4863
4833 4868
4833 4876
4833 4886
4833 4892
4834 4835
4834 4844
4834 4850
4834 4859
4834 4876
4834 4892
4834 4896
4835 4856
4835 4886
4835 4888
4835 4889
4835 4892
4835 4897
4836 4850
4836 4853
4836 4866
4836 4899
4837 4838
4837 4841
4837 4848
4837 4860
4837 4895
4837 4899
4837 4975
4838 4853
4838 4855
4838 4862
4838 4885
4838 4896
4839 4849
4839 4873
4839 4895
4840 4851
4840 4858
4840 4880
4840 4888
4840 4899
4841 4848
4841 4872
4841 4877
4842 4852
4842 4853
4842 4873
4842 4875
4842 4889
4842 4895
4843 4870
4843 4886
4844 4852
4844 4857
4844 4862
4844 4870
4844 4873
4844 4896
4845 4849
4845 4866
4845 4881
4845 4890
4846 4856
4846 4889
4846 4896
4847 4849
4847 4852
4847 4857
4847 4858
4847 4865
4847 4866
4847 4875
4847 4889
4847 4890
4847 4898
4848 4852
4848 4875
4848 4876
4848 4885
4848 4891
4848 4896
4849 4851
4849 4856
4849 4860
4849 4866
4849 4869
4849 4871
4849 4883
4849 4895
4850 4870
4850 4871
4850 4891
4850 4895
4850 4899
4851 4853
4851 4866
4851 4869
4851 4888
4852 4860
4852 4865
4852 4870
4852 4871
4852 4888
4852 4892
4853 4888
4853 4889
4853 4899
4854 4858
4854 4859
4854 4862
4854 4875
4855 4865
4855 4879
4855 4893
4856 4858
4856 4861
4856 4866
4856 4883
4857 4874
4857 4876
4857 4881
4857 4884
4857 4887
4858 4862
4858 4864
4858 4866
4858 4878
4858 4891
4858 4894
4859 4879
4859 4893
4860 4874
4860 4878
4860 4881
4860 4885
4860 4886
4860 4892
4860 4895
4861 4867
4862 4865
4862 4868
4862 4878
4862 4886
4862 4888
4862 4891
4862 4898
4863 4872
4863 4876
4864 4874
4864 4884
4864 4887
4864 4889
4865 4867
4865 4878
4865 4883
4865 4885
4865 4886
4865 4894
4866 4877
4866 4887
4866 4889
4867 4872
4867 4874
4867 4887
4868 4869
4868 4870
4868 4879
4868 4894
4868 4895
4869 4888
4870 4887
4870 4891
4870 4892
4871 4886
4871 4892
4872 4879
4872 4884
4872 4888
4873 4890
4874 4889
4874 4895
4875 4880
4877 4890
4878 4882
4878 4886
4878 4896
4879 4881
4879 4886
4879 4890
4880 4882
4880 4888
4882 4883
4883 4885
4884 4898
4885 4895
4886 4887
4886 4895
4887 4896
4887 4898
4888 4894
4889 4894
4890 4895
4891 4897
4893 4899
4900 4901
4900 4925
4900 4927
4900 4951
4900 4968
4900 4983
4900 4998
4901 4904
4901 4905
4901 4911
4901 4914
4901 4921
4901 4939
4901 4944
4901 4947
4901 4963
4901 4977
4901 4984
4901 4990
4902 4905
4902 4908
4902 4937
4902 4961
4902 4962
4902 4968
4902 4971
4902 4973
4902 4981
4902 4995
4903 4915
4903 4929
4903 4934
4903 4943
4903 4966
4903 4970
4903 4997
4903 4998
4904 4921
4904 4966
4904 4967
4904 4985
4904 4990
4904 4992
4905 4921
4905 4951
4905 4957
4905 4970
4905 4989
4906 4907
4906 4921
4906 4932
4906 4934
4906 4947
4906 4958
4906 4959
4906 4981
4906 4983
4906 4986
4906 4988
4906 4991
4907 4920
4907 4933
4907 4956
4907 4986
4907 4987
4907 4996
4908 4919
4908 4927
4908 4944
4908 4952
4908 4955
4908 4961
4908 4964
4908 4969
4908 4971
4908 4972
4908 4980
4909 4913
4909 4916
4909 4921
4909 4928
4909 4931
4909 4940
4909 4942
4909 4951
4909 4953
4909 4973
4909 4981
4910 4920
4910 4946
4910 4956
4910 4961
4910 4963
4910 4978
4910 4993
4911 4912
4911 4922
4911 4930
4911 4933
4911 4965
4911 4967
4911 4975
4911 4977
4912 4919
4912 4940
4912 4948
4912 4956
4912 4966
4912 4973
4912 4983
4913 4915
4913 4917
4913 4918
4913 4932
4913 4940
4913 4947
4913 4958
4913 4967
4913 4974
4913 4995
4914 4922
4914 4929
4914 4932
4914 4939
4914 4941
4914 4942
4914 4960
4914 4962
4914 4972
4914 4991
4914 4993
4915 4917
4915 4918
4915 4932
4915 4945
4915 4947
4915 4961
4915 4965
4915 4979
4915 4982
4915 4987
4915 4988
4915 4990
4916 4934
4916 4941
4916 4962
4916 4963
4916 4966
4916 4971
4916 4975
4916 4990
4916 4991
4917 4924
4917 4928
4917 4937
4917 4944
4917 4950
4917 4976
4917 4981
4917 4999
4918 4919
4918 4937
4918 4942
4918 4945
4918 4985
4918 4987
4918 4998
4919 4922
4919 4923
4919 4928
4919 4929
4919 4935
4919 4936
4919 4942
4919 4964
4919 4966
4919 4976
4919 4978
4919 4990
4920 4928
4920 4938
4920 4944
4920 4958
4920 4963
4920 4995
4921 4922
4921 4948
4921 4956
4921 4970
4921 4976
4921 4984
4921 4985
4921 4988
4921 4992
4922 4953
4922 4957
4922 4994
4922 4998
4923 4927
4923 4934
4923 4938
4923 4939
4923 4940
4923 4948
4923 4970
4923 4975
4923 4979
4923 4986
4923 4989
4924 4925
4924 4948
4924 4960
4924 4962
4924 4966
4924 4973
4924 4989
4924 4993
4925 4958
4925 4959
4925 4984
4926 4928
4926 4930
4926 4934
4926 4944
4926 4955
4926 4964
4926 4983
4927 4929
4927 4947
4927 4958
4927 4959
4927 4963
4927 4967
4927 4972
4927 4978
4927 4983
4927 4988
4927 4997
4928 4933
4928 4935
4928 4939
4928 4975
4928 4981
4929 4954
4929 4963
4929 4964
4929 4972
4929 4973
4929 4976
4929 4985
4930 4941
4930 4944
4930 4946
4930 4950
4930 4968
4930 4970
4930 4996
4931 4957
4931 4958
4931 4964
4931 4976
4931 4990
4932 4948
4932 4956
4932 4961
4932 4991
4932 4996
4933 4943
4933 4948
4933 4955
4933 4961
4933 4970
4933 4997
4934 4966
4934 4969
4934 4971
4934 4975
4934 4977
4934 4979
4934 4989
4934 4995
4934 4998
4935 4940
4935 4946
4935 4957
4935 4958
4935 4972
4935 4977
4935 4998
4936 4975
4936 4977
4936 4986
4936 4991
4936 4998
4938 4946
4938 4947
4938 4953
4938 4962
4938 4975
4938 4982
4938 4999
4939 4963
4939 4974
4939 4982
4939 4990
4939 4991
4940 4948
4940 4951
4940 4954
4940 4961
4940 4965
4940 4981
4940 4988
4941 4951
4941 4952
4941 4954
4941 4981
4941 4988
4941 4993
4942 4948
4942 4956
4942 4974
4942 4979
4942 4984
4942 4990
4942 4998
4942 4999
4943 4944
4943 4949
4943 4957
4943 4959
4943 4960
4943 4961
4943 4967
4944 4974
4944 4987
4944 4992
4944 4997
4944 4999
4945 4948
4945 4961
4945 4972
4945 4974
4945 4999
4946 4952
4946 4985
4946 4988
4947 4957
4947 4963
4947 4967
4947 4973
4947 4976
4947 4990
4947 4995
4947 4999
4948 4949
4948 4980
4948 4989
4948 4993
4948 4995
4949 4982
4949 4984
4949 4997
4949 4999
4950 4951
4950 4954
4950 4985
4950 4986
4950 4987
4950 4989
4950 4996
4951 4956
4951 4963
4951 4986
4952 4962
4952 4971
4952 4978
4952 4983
4952 4989
4952 4993
4953 4955
4953 4957
4953 4962
4953 4971
4953 4977
4953 4982
4953 4989
4953 4990
4954 4964
4954 4985
4954 4987
4954 4994
4954 4995
4954 4996
4954 4999
4955 4964
4955 4972
4955 4975
4955 4991
4956 4958
4957 4958
4957 4961
4957 4966
4957 4975
4957 4977
4957 4980
4957 4991
4957 4992
4958 4993
4958 4994
4959 4963
4959 4966
4959 4972
4959 4973
4959 4986
4959 4997
4960 4967
4960 4968
4960 4996
4960 4998
4961 4995
4962 4985
4963 4967
4963 4983
4964 4971
4964 4989
4964 4992
4965 4967
4965 4991
4967 4968
4967 4974
4967 4982
4967 4990
4967 4992
4967 4998
4968 4976
4968 4978
4969 4980
4969 4985
4969 4995
4970 4980
4971 4977
4971 4981
4971 4983
4971 4991
4972 4999
4973 4977
4973 4992
4973 4999
4974 4979
4974 4985
4974 4998
4975 4983
4975 4988
4975 4999
4976 4977
4976 4985
4976 4989
4977 4982
4977 4985
4977 4990
4977 4997
4978 4991
4978 4994
4978 4996
4979 4996
4980 4984
4980 4986
4981 4982
4981 4992
4981 4997
4982 4997
4983 4984
4984 4987
4984 4991
4984 4992
4984 4993
4985 4997
4986 4993
4987 4991
4987 4993
4990 4999
4991 4993
4992 4994
4994 4999
4996 4998
4996 4999
4997 4998