# Nodes: 5000
0 7
0 24
0 39
0 42
0 47
0 290
0 1353
0 2831
0 2981
0 3117
0 3525
0 3700
1 5
1 7
1 16
1 22
1 24
1 25
1 30
1 35
1 1487
1 1704
1 3638
1 4277
2 7
2 17
2 22
2 28
2 47
2 441
2 840
2 891
2 907
2 1127
2 1300
2 1786
2 1836
2 2634
3 17
3 21
3 22
3 27
3 33
3 35
3 38
3 47
3 277
3 3659
3 4052
3 4652
4 5
4 21
4 24
4 33
4 49
4 705
4 1766
4 2372
4 2829
4 3116
4 4894
5 16
5 18
5 28
5 34
5 78
5 608
5 1598
5 1840
5 2664
5 3291
5 3318
5 3413
5 3545
5 3648
6 14
6 35
6 39
6 41
6 43
6 774
6 1155
6 1976
6 2168
6 3680
6 4017
6 4364
6 4999
7 8
7 27
7 34
7 36
7 43
7 727
7 846
7 1388
7 1908
7 2126
7 3420
7 4656
8 11
8 29
8 30
8 43
8 47
8 49
8 412
8 1667
8 1837
8 1960
8 2013
8 2349
8 2410
8 3470
8 4311
8 4726
8 4914
9 35
9 1988
9 2042
9 2284
10 25
10 28
10 35
10 48
10 179
10 738
10 1219
10 2110
10 2875
10 2878
10 3049
10 4124
10 4879
11 23
11 25
11 4283
12 20
12 29
12 33
12 858
12 1807
12 2026
12 2276
12 3478
13 30
13 38
13 43
13 1807
13 3232
13 4424
13 4503
14 20
14 23
14 27
14 42
14 45
14 642
14 839
14 1266
14 3722
14 4342
15 25
15 36
15 1026
15 1946
15 2396
15 3359
15 3724
16 27
16 29
16 33
16 39
16 42
16 49
16 985
16 3033
16 3286
17 21
17 29
17 38
17 47
17 1528
17 2349
17 2537
17 2882
18 30
18 33
18 351
18 602
18 839
18 2030
18 3727
18 3906
18 4633
19 35
19 38
19 39
19 45
19 48
19 340
19 494
19 1427
19 4373
20 37
20 46
20 1320
20 2653
20 2843
20 4097
20 4733
20 4940
20 4963
21 27
21 1196
21 1211
21 2442
21 2467
21 3261
21 3683
21 3696
21 4152
21 4428
21 4996
22 32
22 34
22 35
22 38
22 2330
22 3483
22 3510
22 3659
22 4175
23 47
23 185
23 814
23 1263
23 1866
23 2126
23 4957
24 27
24 503
24 1962
24 1998
24 2601
24 3055
24 3243
24 4338
25 28
25 30
25 34
25 42
25 340
25 693
25 1061
25 1782
25 2004
25 3024
25 3861
25 4424
26 30
26 37
26 41
26 46
26 47
26 149
26 920
26 1824
26 3318
26 3826
27 30
27 35
27 41
27 46
27 79
27 1081
27 1724
27 1900
27 1981
27 2558
27 2707
27 4766
27 4852
28 37
28 43
28 232
28 368
28 3941
29 35
29 42
29 47
29 507
29 1707
29 3257
30 44
30 994
30 1575
30 1724
30 4004
30 4908
31 39
31 3238
32 39
32 514
32 790
32 3184
32 4722
33 34
33 35
33 36
33 38
33 1051
33 2863
34 302
34 1155
34 2063
34 2409
34 3112
34 3311
35 43
35 45
35 46
35 1224
35 1335
35 2732
35 3913
36 46
36 48
36 641
36 1698
37 43
37 47
37 483
37 2143
37 2560
37 2852
37 3023
37 3921
37 4785
37 4822
37 4864
38 40
38 47
38 124
38 743
38 3125
38 4906
39 43
39 45
39 710
39 3072
39 3147
39 4396
40 1063
40 3472
40 4357
40 4562
40 4923
41 45
41 48
41 49
41 1763
41 4233
41 4749
42 49
42 176
42 563
42 1392
42 1603
42 2751
42 2975
42 4588
42 4647
42 4913
43 47
43 1410
43 1824
43 1942
44 47
44 1230
44 1459
44 2407
44 2564
44 2569
44 2593
44 2730
44 4730
45 74
45 378
45 1773
45 2226
45 4408
46 351
46 692
46 1486
46 3070
46 3230
46 3305
46 4253
47 49
47 1472
47 2344
47 2960
47 4048
47 4271
48 212
48 2195
48 3820
48 4871
48 4876
49 4963
50 60
50 62
50 78
50 89
51 55
51 56
51 62
51 93
51 94
51 99
51 1367
51 2258
51 3817
51 4010
52 54
52 99
52 491
52 1213
52 2708
52 4069
52 4861
53 59
53 63
53 68
53 83
53 3330
53 4178
53 4669
54 55
54 79
54 89
54 1968
54 3236
54 3300
54 4006
55 56
55 61
55 68
55 70
55 71
55 80
55 87
55 94
55 632
55 1643
55 3065
55 3587
55 4150
56 81
56 90
56 93
56 501
56 1534
56 1943
56 3052
56 3804
57 83
57 93
57 99
57 209
57 1580
57 2678
57 3455
57 4850
57 4979
58 71
58 79
58 95
58 96
58 99
58 380
59 60
59 61
59 72
59 86
59 98
59 3228
59 3301
59 4186
59 4854
60 63
60 74
60 81
60 91
60 92
60 208
60 837
60 1741
60 2879
60 3357
60 4100
61 64
61 74
61 82
61 95
61 97
61 1672
61 2424
61 2442
61 3943
62 63
62 65
62 87
62 1531
62 2026
62 3699
63 72
63 74
63 81
63 99
63 162
63 370
64 91
64 1004
64 2976
64 4228
65 74
65 80
65 87
65 88
65 92
65 94
65 445
65 958
65 1366
65 2290
65 2553
65 2836
65 4254
65 4460
66 68
66 72
66 74
66 75
66 81
66 86
66 99
66 505
66 1013
66 1829
66 3793
66 3829
66 4642
66 4787
67 78
67 87
67 90
67 97
67 1002
67 1899
67 2269
67 2812
67 2902
67 3298
68 73
68 81
68 271
68 1938
68 2183
68 3064
68 3107
68 4349
68 4748
69 77
69 85
69 99
69 2161
70 84
70 95
70 270
70 1267
70 2182
70 3847
70 3968
71 75
71 81
71 82
71 86
71 1436
71 2356
71 2790
71 2857
71 2938
71 4353
72 88
72 104
72 343
72 1610
72 2184
72 3187
72 4533
72 4678
73 76
73 78
73 80
73 98
73 814
73 1447
73 1950
73 2110
73 2496
73 2511
73 3982
74 78
74 88
74 282
74 883
74 990
74 1423
74 1618
74 1923
74 3794
74 4065
75 77
75 80
75 85
75 86
75 262
75 482
75 2968
75 4019
75 4539
75 4599
76 88
76 1393
76 1475
76 2465
76 3715
77 86
77 459
77 1109
77 3281
78 82
78 96
78 171
78 654
78 798
78 822
78 1919
78 3152
78 4636
79 88
79 92
79 465
79 518
79 2975
79 4665
79 4702
79 4941
80 90
80 92
80 467
80 3148
80 4490
80 4966
81 82
81 86
81 99
81 282
81 696
81 730
81 2458
82 86
82 88
82 102
82 1017
82 1044
82 1932
82 2448
82 4173
82 4628
83 88
83 89
83 93
83 97
83 270
83 2931
83 3577
83 3697
84 93
84 94
84 99
84 958
84 2574
84 3596
85 855
85 2947
86 621
86 1286
86 3807
86 3887
87 519
87 2320
87 3788
87 4277
87 4905
88 95
88 2797
88 2936
88 2951
88 4487
88 4696
89 90
89 265
89 644
89 1210
89 2304
89 2509
89 2948
89 3192
89 3883
89 3992
90 871
90 1039
90 2099
90 2484
90 3229
90 3868
90 4300
91 92
91 93
91 96
91 240
91 670
91 1672
91 1779
91 1999
91 2264
91 4333
92 96
93 1051
93 2451
93 2453
93 3372
93 4376
93 4977
94 96
94 448
94 1642
94 1834
94 3198
94 4923
95 96
95 1500
95 1571
95 3186
95 4364
95 4548
96 632
96 1609
96 1700
96 2232
96 2819
96 2991
96 4454
97 1172
97 3138
97 3730
97 4326
97 4855
98 788
98 1052
98 1414
98 1682
98 1957
98 2450
98 3832
98 4625
99 2500
99 2607
99 2707
100 103
100 104
100 106
100 119
100 125
100 128
100 138
100 4480
101 106
101 111
101 123
101 131
101 279
101 1218
101 2847
101 3384
101 3752
102 104
102 111
102 118
102 472
102 1814
102 2859
102 4804
103 106
103 115
103 133
103 135
103 141
103 629
103 1045
103 2553
103 3148
103 4222
104 114
104 130
104 131
104 3334
104 4405
105 114
105 117
105 128
105 129
105 142
105 146
105 201
105 516
105 3365
105 4327
105 4390
106 134
106 139
106 144
106 148
106 1110
106 2998
106 3710
106 4409
107 112
107 130
107 239
107 663
107 2526
107 2571
107 2716
107 2725
107 3101
107 3479
107 4144
108 896
108 2405
108 3423
108 3640
108 3730
108 4013
108 4547
108 4826
109 110
109 127
109 130
109 142
109 144
109 206
109 240
109 1247
109 1825
109 2689
110 143
110 896
110 1836
110 3054
110 3726
111 116
111 125
111 132
111 135
111 457
111 1536
111 1540
111 1798
111 3501
111 4845
112 113
112 119
112 122
112 130
112 149
112 929
112 1524
113 114
113 130
113 143
113 1031
113 1716
113 3677
114 119
114 132
114 147
114 797
114 3095
114 3750
114 4402
114 4754
115 117
115 125
115 126
115 132
115 134
115 843
115 1717
115 3107
115 4630
116 117
116 118
116 138
116 141
116 147
116 1470
116 3690
117 121
117 136
117 142
117 1310
117 1806
117 2959
117 3113
117 3678
117 4669
118 126
118 128
118 131
118 135
118 141
118 149
118 511
118 941
118 1005
118 3361
118 3907
118 4225
119 124
119 127
119 131
119 138
119 139
119 147
119 901
119 2135
119 2206
120 121
120 127
120 136
120 142
120 1169
120 3413
120 3973
121 139
121 2663
121 3364
121 4577
122 125
122 252
122 2797
122 2823
122 3128
122 4032
123 127
123 130
123 132
123 147
123 4911
124 134
124 136
124 144
124 1941
124 4536
125 139
125 141
125 890
125 3085
125 3520
125 3729
125 4243
126 136
126 140
126 145
126 147
126 2000
126 3985
126 4006
126 4625
127 129
127 143
127 145
127 3495
128 132
128 148
128 1481
128 1764
128 1908
128 2178
128 3421
128 3686
128 4654
128 4659
129 138
129 147
129 149
129 2388
129 2493
129 2552
129 3088
129 3089
129 3195
129 3490
129 3994
129 4130
130 133
130 139
130 140
130 940
130 2031
130 2074
130 2362
130 4542
130 4907
131 429
131 3666
132 134
132 139
132 140
132 148
132 149
132 3903
132 4140
133 135
133 173
133 1083
133 1200
133 2600
133 2797
133 4024
133 4362
134 141
134 1452
134 2520
134 2980
134 3532
134 4697
134 4984
135 3575
135 3754
136 140
136 2578
136 3033
137 140
137 142
137 216
137 2807
137 3324
138 1396
138 1441
138 3486
138 3573
139 831
139 2750
139 2865
139 2870
139 3015
139 4190
140 459
140 2793
140 3328
140 3443
140 3939
140 4259
140 4691
140 4987
141 143
141 402
141 2132
141 3567
141 4373
142 143
142 337
142 2115
142 2140
142 4000
142 4349
143 2104
143 2503
144 147
144 394
144 1363
144 1681
144 2213
144 2639
144 3083
144 3221
144 3326
144 3637
145 146
145 148
145 1970
145 2686
145 3526
145 3893
146 149
146 854
146 1814
146 1858
146 2171
146 2923
146 4355
146 4660
147 2259
147 4267
147 4361
147 4719
148 238
148 1522
148 1565
148 3903
148 4437
148 4880
149 1091
149 3720
149 4085
150 174
150 182
150 188
150 204
151 164
151 213
151 1089
151 4193
152 183
152 1444
152 1688
152 2681
152 3818
152 4310
153 165
153 184
153 241
153 253
153 583
153 1275
153 1473
153 1634
153 2064
153 2789
153 3769
154 171
154 183
154 186
154 197
154 737
154 2177
154 4705
155 156
155 165
155 171
155 181
155 184
155 185
155 187
155 189
155 190
155 2009
155 2217
155 3122
155 3221
155 4901
155 4922
156 173
156 175
156 189
156 198
156 1596
156 1824
156 2097
156 3364
157 159
157 165
157 169
157 183
157 185
157 666
157 2720
157 3288
157 4845
158 160
158 164
158 188
158 192
158 193
158 195
158 442
158 826
158 999
158 1427
158 1446
158 2428
158 4061
159 162
159 175
159 180
159 181
159 192
159 504
159 1192
159 1348
159 3052
159 3486
159 3491
159 3733
160 181
160 191
160 735
160 1088
160 3727
160 3741
160 4012
161 162
161 163
161 164
161 175
161 181
161 192
161 197
161 466
161 811
161 1568
161 2152
161 3336
161 3767
161 4165
161 4876
162 189
162 1598
162 2137
162 2615
162 2868
162 3043
162 3820
162 4313
163 176
163 178
163 186
163 187
163 3295
164 178
164 1719
164 2276
164 2936
164 3468
164 3663
165 172
165 176
165 189
165 1393
165 1861
165 1877
165 2803
165 3015
165 4211
165 4652
165 4721
166 176
166 186
166 1320
166 2026
166 3687
166 4801
167 174
167 184
167 186
167 198
167 526
167 717
167 1320
167 1389
167 1746
167 1945
167 2017
167 2331
167 2440
167 2606
167 3788
168 179
168 191
168 196
168 1914
168 1924
168 4480
168 4656
169 172
169 178
169 179
169 185
169 190
169 783
169 1107
169 2085
169 4446
170 172
170 176
170 199
170 3282
171 172
171 197
171 199
171 734
171 2279
171 3694
172 182
172 187
172 194
172 195
172 351
172 434
172 720
172 4356
173 190
173 191
173 1848
173 2273
173 2877
173 3434
174 357
174 997
174 1510
174 1657
174 1677
174 3427
174 4797
175 191
175 196
175 199
175 1111
175 1199
175 1702
175 2129
176 182
176 738
176 1859
176 2711
176 3056
176 4801
177 178
177 186
177 188
177 191
177 199
177 324
177 4370
178 180
178 354
178 510
178 2518
178 3026
178 4066
178 4140
179 189
179 194
179 195
179 196
179 197
179 535
179 1290
179 3808
179 4757
180 1379
180 1825
180 3316
181 183
181 196
181 198
181 1805
181 3367
182 183
182 184
182 187
182 190
182 193
182 195
182 198
182 1025
182 1477
182 2707
182 2791
182 3945
182 4489
183 195
183 1252
183 1275
183 4206
183 4629
184 189
184 199
184 205
184 1907
184 3832
184 4099
185 197
185 198
185 1189
186 1973
186 3250
186 4280
187 1031
187 2147
187 2713
187 3342
187 3505
188 195
188 199
188 1039
189 197
189 199
189 274
189 1735
189 1877
189 2290
189 4929
190 191
190 199
190 233
190 1200
190 1463
190 3092
190 3146
191 198
191 199
191 876
191 1945
191 2797
191 3511
191 3705
191 3834
191 4394
191 4415
191 4526
191 4757
192 1886
192 2747
192 4154
192 4276
192 4996
193 1182
193 1252
193 2257
193 3757
193 4201
194 1115
195 196
195 1044
195 1287
195 2557
195 3155
195 3892
195 4627
196 335
196 1247
196 1968
196 2502
196 4730
196 4916
197 1339
197 2002
197 3478
197 3825
197 4588
198 396
198 3128
198 4442
199 237
199 502
199 1819
199 2065
200 219
200 221
200 224
200 227
200 228
200 229
200 247
200 452
200 1854
200 2083
200 2896
200 3718
200 3755
200 4052
201 204
201 210
201 222
201 229
201 1010
201 2909
201 3264
202 211
202 212
202 231
202 352
202 1429
202 3149
202 3800
202 4356
203 210
203 217
203 232
203 668
203 724
203 1130
203 1749
203 1957
203 2206
203 2822
203 2879
204 213
204 215
204 216
204 217
204 243
204 248
204 249
204 4109
204 4455
205 217
205 356
205 3163
206 209
206 229
206 587
206 3549
207 215
207 232
207 233
207 247
207 248
207 1275
207 2093
208 225
208 226
208 227
208 238
208 245
208 246
208 247
208 818
208 896
208 1172
208 1317
208 2602
208 4239
209 211
209 218
209 225
209 228
209 236
209 242
209 650
209 961
209 2996
210 215
210 222
210 225
210 227
210 229
210 238
210 425
210 1044
210 1826
211 214
211 218
211 248
211 306
211 1050
211 1478
211 1758
211 2322
211 2383
211 2730
211 3135
211 3694
211 3982
211 4608
212 213
212 214
212 227
212 244
212 246
212 821
212 1607
212 1722
212 2548
212 3939
212 4122
212 4904
213 223
213 232
213 234
213 241
213 309
213 1111
213 1821
213 2083
213 2429
214 234
214 237
214 684
214 726
214 1200
214 2695
214 4083
215 218
215 239
215 244
215 248
215 1141
215 1227
215 1258
215 1833
215 2648
215 2936
216 224
216 248
216 786
216 1266
216 2907
216 3114
216 4287
217 222
217 228
217 238
217 1650
217 2300
217 3836
218 229
218 248
218 1005
218 1162
218 2845
218 3371
218 3983
219 236
219 336
219 1149
219 3670
219 3684
219 3785
220 230
220 240
220 824
220 1414
220 2249
220 3343
221 233
221 235
221 238
221 616
221 861
221 2616
221 3364
221 3460
222 235
222 244
222 247
222 248
222 249
222 2579
222 3165
222 4627
223 442
223 1071
223 1517
223 3387
223 3433
223 3522
224 229
224 1035
224 1070
224 1544
224 2104
224 3990
224 4818
225 226
225 229
225 232
225 234
225 237
225 245
225 246
225 248
225 2068
225 4299
226 227
226 228
226 232
226 233
226 247
226 248
226 309
226 986
226 1210
226 1713
226 3104
227 243
227 1973
228 232
228 233
228 234
228 243
228 246
228 312
228 812
228 1720
228 1996
228 3392
228 3724
229 238
229 248
229 677
229 753
229 1494
229 2629
229 2811
229 4487
230 232
230 234
230 514
230 1542
230 2551
230 4346
230 4349
231 1412
232 233
232 238
232 242
232 247
232 268
232 582
232 2084
232 2340
232 4520
233 247
233 248
233 645
233 1459
233 1574
233 1914
233 2078
233 2250
233 3615
234 246
234 659
234 2297
234 2668
234 4761
235 246
235 248
235 1310
235 2072
235 4072
235 4649
236 2141
236 2239
236 3103
237 1053
237 1289
237 1419
237 3347
237 3456
237 3491
237 3744
238 241
238 1118
238 3987
239 241
239 246
239 1114
239 1731
239 2070
239 2768
240 1382
240 1690
240 3245
240 3736
241 242
241 2207
242 248
242 2229
242 2230
242 3029
242 4051
243 993
243 1160
243 1972
243 3004
243 3301
243 3514
244 1341
244 1618
245 1600
245 1817
246 254
246 1055
246 1132
246 2146
247 802
247 2287
247 3728
247 4351
247 4711
247 4766
248 782
248 2571
248 2843
248 2910
248 4494
249 752
249 1322
249 2853
249 4344
249 4453
249 4774
250 254
250 259
250 264
250 284
250 285
250 290
250 676
250 936
250 2185
250 2519
250 3096
250 3587
250 4050
251 259
251 268
251 283
251 293
251 2137
251 4406
252 253
252 266
252 269
252 275
252 279
252 282
252 283
252 288
253 269
253 281
253 282
253 288
253 291
253 298
253 433
253 1291
253 2071
253 3245
253 3664
253 4359
254 258
254 260
254 276
254 277
254 279
254 282
254 283
254 287
254 292
254 382
254 2049
255 292
255 630
255 1014
255 1849
255 2959
255 3627
256 277
256 289
256 934
256 1444
256 1821
256 2120
256 2836
256 3727
256 3844
256 3885
257 263
257 269
257 276
257 277
257 281
257 288
257 295
257 298
257 1889
257 3637
257 4182
257 4344
257 4534
258 283
258 299
258 893
258 2057
258 2254
258 3959
258 4678
258 4821
259 265
259 274
259 291
259 415
259 1024
259 1394
259 1437
259 1592
259 4181
260 267
260 282
260 293
260 325
260 2920
260 3009
260 4108
260 4170
261 264
261 268
261 296
261 694
261 726
261 1664
261 2262
261 4181
262 266
262 273
262 278
262 291
262 1212
262 1267
262 1481
262 2820
262 3405
262 3649
263 274
263 1462
263 2448
263 3951
263 4517
264 269
264 272
264 328
264 602
264 1526
264 2742
264 3478
265 275
265 291
265 297
265 416
265 920
265 3248
265 3619
265 4760
266 281
266 815
266 1129
266 4872
266 4911
267 286
267 293
267 295
267 943
267 1929
267 1950
267 3064
267 3354
267 3435
267 3731
268 269
268 279
268 290
268 337
268 935
268 963
268 3207
268 3784
268 4618
268 4638
269 272
269 283
269 294
269 298
269 1929
269 3858
270 273
270 279
270 281
270 788
270 1478
270 2232
270 3065
270 4996
271 283
271 292
271 294
271 1155
271 2357
272 296
272 1450
272 1473
272 3308
272 4738
273 279
273 292
273 298
273 299
273 4685
274 286
274 287
274 291
274 298
274 547
274 2098
274 2392
274 3988
275 276
275 282
275 292
275 921
275 940
275 3003
275 4778
276 287
276 297
276 298
276 2454
276 3402
276 3482
276 3911
277 280
277 282
277 284
277 286
277 296
277 298
277 309
277 640
277 2587
278 279
278 1376
278 2081
278 2629
278 3947
279 285
279 286
279 288
279 292
279 297
279 821
279 2634
279 3455
279 4251
279 4649
280 289
280 295
280 296
280 297
280 502
280 969
280 4321
280 4430
281 289
281 290
281 493
281 682
281 1456
281 1967
281 4758
281 4830
281 4866
282 294
282 386
282 944
282 2389
282 2871
282 3550
282 3753
283 290
283 301
283 3759
283 3797
283 3845
284 295
284 1349
284 1848
285 515
285 720
285 2301
285 3572
285 3688
285 3966
285 4146
285 4675
285 4925
286 1481
286 2932
286 3497
286 3968
286 4521
286 4837
287 292
287 1587
287 1994
287 3606
287 3806
288 295
288 745
288 2696
288 3130
289 292
289 949
289 1360
289 1743
289 1957
289 2154
289 2470
289 2731
289 3586
289 3728
290 1058
290 2098
290 2933
290 2979
290 3051
290 4347
290 4389
291 815
291 1162
291 1989
291 3173
291 3626
291 3919
292 298
292 299
292 2699
292 2967
292 3076
292 3084
292 3482
293 295
293 828
293 2469
293 2635
293 2717
293 4143
293 4625
293 4807
294 463
294 1344
294 4790
294 4985
295 2703
296 1077
296 2301
296 2363
296 2982
296 3629
296 4640
297 649
297 800
297 950
297 1927
297 1973
298 1704
298 2055
298 2137
298 4364
299 313
299 1448
299 2031
299 2986
299 3498
299 4162
299 4953
300 307
300 313
300 320
300 326
300 327
300 341
300 2152
300 2975
300 3500
300 3660
301 323
301 1638
301 1962
301 4209
302 307
302 327
302 341
302 344
302 347
302 798
302 1344
302 3665
302 3675
302 3849
302 4564
302 4568
303 316
303 325
303 327
303 338
303 342
303 642
303 2515
303 3446
304 308
304 312
304 333
304 334
304 339
304 342
304 345
304 347
304 930
304 1458
304 3385
304 3896
304 3992
305 306
305 314
305 335
305 339
305 340
305 547
305 1549
305 2231
305 2532
305 2856
305 3034
305 3329
305 3516
305 4427
306 317
306 343
306 438
306 512
306 781
306 3199
306 3776
306 4746
307 319
307 328
307 343
307 345
307 346
307 892
307 1425
307 3173
307 3251
307 3923
307 4955
308 320
308 324
308 332
308 333
308 336
308 339
308 1734
308 2316
308 2369
309 317
309 504
309 814
309 1480
309 1529
309 3773
309 3993
309 4218
310 317
310 327
310 330
310 1100
310 1411
310 2285
310 4112
311 312
311 314
311 315
311 324
311 326
311 327
311 331
311 332
311 343
311 1021
311 1197
311 1226
312 323
312 345
312 1896
312 3861
312 3993
312 4423
312 4843
313 318
313 323
313 327
313 329
313 342
313 459
313 537
313 928
313 3432
313 3602
313 4244
313 4503
313 4941
314 1798
314 2815
314 3028
314 3394
314 4820
315 327
315 329
315 334
315 341
315 344
315 3128
315 4031
316 345
316 816
316 2428
316 2565
316 4206
317 321
317 346
317 1569
317 2312
317 2378
317 3213
317 3380
317 3924
317 4533
318 321
318 326
318 346
318 1071
318 1081
318 1849
318 1908
318 2482
318 2561
318 2710
318 4212
319 326
319 344
319 945
320 325
320 331
320 336
320 387
320 1899
320 3292
320 3797
320 4500
320 4556
320 4980
321 335
321 347
321 3089
321 4151
321 4934
322 337
322 343
322 346
322 883
322 2051
322 3389
323 325
323 326
323 329
323 337
323 339
323 342
323 1342
323 1976
323 2552
323 2871
323 3688
323 3761
324 325
324 326
324 333
324 345
324 349
324 478
324 2860
324 4511
325 574
325 840
325 1064
325 1115
325 2070
325 2236
325 3131
325 3379
325 3590
325 3666
325 3777
326 335
326 409
326 1282
326 2309
326 3091
326 3763
326 4522
326 4548
326 4895
327 334
327 335
327 1294
327 2681
327 3592
327 3726
327 4316
328 335
328 337
328 345
328 849
328 1977
328 2203
328 2496
328 4122
329 337
329 515
329 659
329 715
329 1071
329 2592
329 3194
329 3652
329 3818
329 4881
329 4912
330 334
330 1260
330 1833
330 2543
330 3906
331 346
331 349
331 2024
331 2310
331 2798
332 333
332 338
332 342
332 349
332 529
332 641
332 1606
332 1891
332 2747
332 2887
332 3633
332 4904
333 337
333 340
333 1864
333 2701
333 4178
334 335
334 1587
334 3237
335 344
335 782
335 2186
335 2834
335 4951
336 337
336 341
336 349
336 635
336 1359
336 2099
336 2508
336 3509
336 4528
337 343
337 349
337 661
337 1082
337 3147
337 3323
337 3654
338 339
338 2269
338 3267
338 4314
338 4654
339 3251
340 1469
340 1570
340 2629
340 3598
340 4026
340 4970
341 345
341 346
341 923
341 3110
341 4565
342 345
342 467
342 503
342 504
342 600
342 2425
342 2844
342 3687
342 3769
342 4451
342 4615
343 717
343 1387
343 2458
344 346
344 3023
344 3332
344 4899
345 346
345 348
345 1399
345 3465
345 4414
346 363
346 424
346 2465
347 507
347 847
347 3712
347 4718
348 1533
348 3455
349 835
349 3631
350 362
350 378
350 381
350 389
350 393
350 395
350 1657
350 1981
350 2004
350 3315
350 3749
350 4190
351 352
351 1884
351 1989
351 2481
351 3260
352 364
352 372
352 398
352 535
352 1454
352 2664
352 2724
352 3170
352 3947
352 4296
352 4425
352 4851
353 385
353 397
353 1131
353 2218
353 2768
353 2791
353 4282
353 4683
354 365
354 376
354 385
354 387
354 1189
354 1491
354 2483
354 3109
355 361
355 370
355 377
355 378
355 380
355 381
355 391
355 1021
355 1306
355 2135
355 2442
355 3118
355 3686
355 3774
355 4484
356 369
356 380
356 387
356 389
356 1588
356 2105
356 2609
356 2735
356 3463
356 4170
356 4385
357 360
357 365
357 373
357 382
357 397
357 1993
357 2395
357 2441
357 2599
357 4296
358 366
358 373
358 383
358 387
358 398
358 753
358 850
358 2807
358 3067
358 4166
358 4716
359 360
359 363
359 381
359 391
359 1156
359 1811
359 2539
359 2602
359 2827
360 364
360 370
360 390
360 399
360 2623
360 3826
360 4644
361 362
361 370
361 373
361 378
361 379
361 382
361 389
361 397
361 1499
361 2589
361 2650
361 3045
361 4100
362 364
362 373
362 376
362 384
362 1243
362 1485
362 2446
363 367
363 369
363 376
363 378
363 381
363 1926
363 3294
363 4615
364 374
364 375
364 384
364 385
364 389
364 398
364 1619
364 1968
364 2329
364 3468
365 372
365 1932
365 2157
365 2187
365 2687
365 3435
365 3696
365 4782
366 378
366 1592
366 2224
366 2326
366 2853
366 3173
366 4245
366 4878
367 371
367 372
367 386
367 388
367 390
367 1443
367 2222
367 2284
367 4276
368 377
368 540
368 3327
368 4700
369 380
369 383
369 389
369 398
369 934
369 1329
369 2807
370 382
370 392
370 1628
370 1829
370 1970
371 378
371 385
371 395
371 397
371 1519
371 3371
371 3667
371 3878
371 4274
371 4326
372 378
372 1479
372 1485
372 2190
372 3287
373 380
373 383
373 387
373 393
373 396
373 399
373 2220
373 2303
373 3201
373 4096
373 4673
374 393
374 642
374 1415
374 1918
374 1974
374 2145
374 4169
375 377
375 384
375 387
375 3172
375 3423
375 3969
375 4702
375 4912
376 398
376 399
376 731
376 1965
376 2258
376 2356
376 2692
377 386
377 388
377 987
377 1016
377 1086
377 1904
377 2174
377 3414
377 3856
377 4389
378 387
378 395
378 826
378 1097
378 1708
378 1969
378 4732
379 394
379 491
379 4200
379 4697
380 387
380 388
380 389
380 391
380 1726
380 4568
380 4897
381 1272
381 1409
381 1564
381 1587
381 2081
381 2498
382 391
382 399
382 564
382 2094
382 2214
382 3684
383 390
383 2636
384 1640
384 2398
384 3285
384 3383
384 4120
385 391
385 392
385 393
385 394
385 415
385 696
385 1611
385 2091
385 2235
385 3066
386 391
386 438
386 562
386 1447
386 1576
386 4527
387 389
387 584
387 932
387 989
387 1668
387 2050
387 2301
388 1905
388 3286
388 4036
388 4557
389 393
389 626
389 2553
389 3525
389 3667
389 3861
390 546
390 854
390 956
390 1694
390 1799
390 1917
390 1929
390 1976
390 2122
391 392
391 397
391 398
391 947
391 2821
391 4588
392 393
392 949
392 1223
392 1253
392 2492
392 3561
392 4313
393 1017
393 1577
393 1707
394 1523
394 1753
394 2103
394 3042
394 4285
394 4631
394 4795
395 399
395 1260
395 2669
396 398
396 1919
396 2584
396 3448
396 4110
396 4150
396 4456
397 1558
397 1662
398 1421
398 1424
398 1676
398 1745
398 1776
398 3339
398 4216
399 894
399 1401
399 3385
399 3508
400 405
400 415
400 427
400 430
400 448
400 449
400 1221
400 1998
400 2576
400 2577
400 2739
400 3134
400 3594
400 3849
400 4232
400 4857
401 412
401 427
401 431
401 449
401 958
401 1635
401 1643
401 2291
401 2618
401 3540
401 3715
402 406
402 407
402 411
402 412
402 423
402 426
402 435
402 440
402 441
402 893
402 1307
402 1412
403 409
403 410
403 413
403 429
403 431
403 439
403 1430
403 2876
403 2897
403 3467
404 413
404 425
404 530
404 1978
404 2260
404 2324
404 2393
404 3874
404 3978
405 406
405 412
405 420
405 425
405 438
405 885
405 1994
405 2074
405 2305
405 2551
405 3935
405 4127
405 4418
406 410
406 411
406 417
406 419
406 429
406 431
406 436
406 447
406 606
406 1287
406 1367
406 2305
406 3551
406 3997
406 4796
407 414
407 422
407 428
407 433
407 442
407 1175
407 1386
407 2832
407 2999
408 410
408 418
408 429
408 434
408 438
408 3525
408 4131
409 416
409 423
409 442
409 449
409 1122
409 2473
410 424
410 443
410 448
410 973
410 1344
410 4000
411 412
411 423
411 431
411 436
411 1121
411 2410
411 3463
411 3658
411 4107
411 4219
411 4759
411 4870
412 422
412 431
412 440
412 445
412 1100
412 1436
412 2320
412 4055
412 4088
412 4829
413 414
413 415
413 422
413 2149
413 2759
413 3566
413 3615
413 3728
413 4189
413 4723
413 4969
414 424
414 2373
414 3078
414 3546
414 4804
415 422
415 428
415 446
415 447
415 460
415 776
415 1019
415 1206
415 1685
415 2470
416 419
416 425
416 432
416 434
416 903
416 2421
416 3078
416 3245
416 3571
417 418
417 429
417 431
417 432
417 433
417 440
417 442
417 443
417 1818
417 2234
417 3233
417 3662
418 419
418 422
418 430
418 437
418 440
418 953
418 1226
418 2405
419 604
419 1330
419 2755
419 2967
419 3080
419 3768
419 3961
419 4309
420 422
420 434
420 443
420 2559
420 3390
420 3855
420 4586
421 422
421 426
421 436
421 439
421 1085
421 1187
421 2695
421 3358
422 440
422 449
422 492
422 1002
422 1091
422 2458
422 2577
422 4542
423 426
423 431
423 433
423 446
423 1002
423 2685
423 4492
423 4567
424 429
424 449
424 1643
424 2558
424 4704
425 428
425 442
425 2274
425 2563
425 4555
425 4686
426 431
426 1280
426 3713
426 4901
427 886
427 2170
427 4003
428 430
428 434
428 438
428 1783
428 2189
428 2486
428 4393
429 435
429 2215
429 2774
429 3024
430 442
430 2055
430 3172
430 3340
431 435
431 442
431 741
431 1208
431 1265
431 1842
431 2537
431 2740
431 4516
432 449
432 2328
432 4404
432 4971
433 940
433 1140
433 2224
433 2328
433 2853
433 3576
433 4518
434 437
434 2352
434 2446
434 3854
434 4398
435 4119
436 438
436 439
436 3728
436 4515
436 4901
437 448
437 449
437 802
437 1618
437 2573
437 3773
438 445
438 675
438 1246
438 1676
438 3074
438 3861
438 4670
439 1521
439 2354
439 2696
439 3198
439 3765
439 4473
440 555
440 931
440 2365
440 3431
441 498
441 1746
441 3266
441 3461
441 4279
441 4640
442 443
442 444
442 1857
442 1924
443 1855
443 2584
443 4426
444 445
444 446
444 760
444 1345
444 4330
445 449
445 2533
445 2628
445 2732
445 4667
446 447
446 1851
446 3229
446 3950
447 950
447 978
447 1021
447 1258
447 1774
447 3595
448 1999
448 3014
448 3789
448 3920
448 4331
448 4742
449 1552
449 2206
449 2939
449 3083
449 3975
450 455
450 457
450 484
450 4182
450 4228
450 4593
450 4785
450 4801
450 4854
451 455
451 473
451 474
451 484
451 485
451 490
451 491
451 493
451 900
451 1621
451 3753
451 4629
452 456
452 458
452 467
452 492
452 789
452 908
452 1700
452 1819
453 484
453 486
453 487
453 494
453 916
453 1285
453 1592
453 1797
453 3018
453 3670
453 3817
453 4546
454 457
454 479
454 486
454 2491
454 3192
454 3540
454 3622
454 3736
455 474
455 480
455 482
455 485
455 493
455 499
455 1448
455 1694
455 2924
455 3019
455 3864
456 458
456 474
456 478
456 488
456 489
456 497
456 865
456 881
456 1974
456 2140
456 3816
456 4755
456 4901
457 461
457 466
457 485
457 493
457 2091
457 2266
457 2630
457 3287
457 4186
458 462
458 464
458 474
458 477
458 490
458 493
458 497
458 872
458 2190
458 3142
458 4833
459 460
459 465
459 476
459 478
459 484
459 495
459 1667
459 2124
459 2570
460 470
460 471
460 472
460 474
460 476
460 496
460 1226
460 1634
460 1875
460 2791
460 3576
461 467
461 468
461 494
461 495
461 782
461 1210
461 1496
461 2143
461 2372
461 3832
462 473
462 478
462 481
462 1139
462 2046
463 473
463 474
463 478
463 479
463 482
463 2879
463 4530
464 468
464 473
464 495
464 496
464 3690
464 4004
464 4358
464 4995
465 470
465 471
465 486
465 4075
466 482
466 2147
466 2971
466 3864
466 4925
467 468
467 470
467 479
467 481
467 492
467 496
467 498
467 1618
467 3386
467 3415
467 4458
468 474
468 2162
468 2562
468 2907
468 3044
468 3331
468 3493
468 4587
469 474
469 476
469 498
469 849
469 3524
469 4114
469 4361
470 480
470 486
470 488
470 1937
470 2058
470 2829
470 3199
470 4043
470 4838
471 497
471 498
471 1385
471 1588
471 2133
471 3754
472 476
472 480
472 481
472 490
472 499
472 999
472 1734
472 2157
472 2691
472 2806
472 3090
472 3508
472 3650
472 4606
473 495
473 1174
473 2619
473 3091
473 3718
473 4513
473 4628
473 4811
474 853
474 2720
474 4017
475 490
475 772
475 1104
475 1935
475 2765
475 3489
475 3781
476 482
476 1095
476 1562
476 3887
476 4536
477 479
477 491
477 1165
477 2349
478 486
478 494
478 2279
479 857
479 1277
479 2010
479 2353
479 3818
480 488
480 490
480 534
480 4662
480 4826
481 487
481 493
481 496
481 598
481 812
481 3425
481 3675
482 487
482 911
482 1298
482 1345
482 4882
483 484
483 773
483 890
483 1169
483 2776
483 4204
484 812
484 2910
484 2915
484 2990
484 3938
484 4084
484 4385
484 4539
485 497
485 825
485 2570
485 3405
486 499
486 1437
486 1817
486 2586
486 3017
486 4539
486 4760
487 488
487 892
487 2252
487 2930
487 4871
488 493
488 494
488 1613
488 3392
488 3510
488 4797
489 491
489 492
489 654
489 1213
489 1435
489 1638
489 2485
489 3861
489 4173
490 2212
490 2549
490 4614
490 4961
491 494
491 499
491 709
491 935
491 1326
491 1720
491 1992
492 1204
492 3797
492 3888
492 3919
493 606
493 1088
493 2452
493 2716
494 1396
494 4808
495 496
495 2468
495 2559
495 2664
495 4913
496 497
496 550
496 989
496 2690
496 3379
496 4194
497 1959
497 2269
497 2732
497 2858
497 3759
497 4240
498 1265
498 3585
498 4009
499 951
499 1323
499 2152
499 2874
499 3483
499 3643
499 4031
499 4849
500 512
500 529
500 544
500 547
500 549
500 1814
500 1875
500 2049
500 3387
501 504
501 511
501 532
501 539
501 1609
501 2242
501 2845
501 3593
501 4904
502 511
502 523
502 524
502 531
502 546
502 986
502 1755
502 3010
502 3951
503 515
503 520
503 544
503 1244
504 509
504 515
504 517
504 520
504 530
504 764
504 2382
504 2408
504 2773
504 2978
504 3675
504 4253
504 4907
505 508
505 524
505 529
505 533
505 535
505 1620
506 511
506 519
506 520
506 544
506 546
506 2497
506 3366
506 4380
506 4521
506 4748
507 519
507 537
507 545
507 548
507 937
507 1264
507 2161
507 2997
507 3413
507 3538
507 3757
507 3980
508 515
508 529
508 530
508 539
508 546
508 700
508 2409
508 2679
509 513
509 514
509 525
509 531
509 1728
509 3450
509 4140
509 4761
509 4786
510 512
510 521
510 525
510 537
510 548
510 1120
510 1134
510 2457
510 4058
510 4214
510 4580
511 512
511 514
511 515
511 517
511 519
511 533
511 538
511 2450
511 2632
511 4747
512 517
512 531
512 543
512 1558
512 2798
512 3120
512 3957
512 4245
512 4698
513 516
513 533
513 537
513 540
513 544
513 700
513 2968
513 3228
513 3378
514 544
514 629
514 3514
514 3897
515 522
515 543
515 1119
515 2913
515 2952
515 4532
515 4894
516 525
516 530
516 536
516 537
516 750
516 979
516 1039
516 2391
516 4211
516 4884
517 526
517 531
517 2081
517 2085
518 534
518 542
518 543
518 549
518 988
518 2370
518 3467
518 4172
518 4175
518 4595
518 4814
519 528
519 532
519 534
519 549
519 1060
519 1709
519 2132
519 3249
519 3662
519 4397
520 533
520 536
520 543
520 574
520 1022
520 1031
520 1434
520 3707
521 523
521 545
521 1358
521 1694
521 2415
522 535
522 537
522 1236
522 1723
522 1810
522 2629
522 3482
522 3805
522 4606
522 4781
523 532
523 539
523 544
523 984
523 3935
523 4006
523 4336
524 541
524 704
524 943
524 1638
524 1790
524 2700
524 3298
524 3576
525 527
525 528
525 1254
525 2175
525 2586
525 2946
525 4165
525 4354
526 533
526 543
526 3480
526 4779
527 533
527 541
527 543
527 549
527 640
527 2214
527 2284
527 3629
527 3922
527 4610
528 536
528 1017
528 1265
528 1334
528 2089
528 3219
528 3273
528 3326
528 3735
528 4166
528 4472
528 4521
529 532
529 538
529 1257
529 3321
530 3031
530 3565
530 3683
530 4024
531 536
531 540
531 2339
531 2367
531 2530
531 3996
531 4481
532 539
532 540
532 548
532 1997
532 3602
532 3763
532 4981
532 4999
533 543
533 546
533 1987
534 1662
534 2975
534 3579
534 4155
535 1548
535 3234
535 3607
535 4471
535 4593
535 4878
536 1866
537 648
537 2312
537 2408
537 3812
538 799
538 2697
539 1686
539 1692
539 4186
539 4232
539 4793
540 545
540 547
540 1831
540 3520
540 3726
540 4627
541 546
541 591
541 1291
541 2724
541 2959
541 3644
541 3984
541 4595
542 544
542 545
542 548
542 549
542 737
542 1401
542 2749
542 2975
542 3066
542 3276
542 3370
542 3752
542 4749
542 4891
543 544
543 2078
543 2847
543 4483
544 1483
545 546
545 548
545 549
545 2252
545 2652
545 3309
545 3924
545 4349
546 549
546 720
546 762
546 1539
546 2418
546 2990
546 3085
546 3217
546 3390
546 3758
546 4146
546 4676
548 1008
548 1308
548 2808
548 3095
548 4874
548 4941
549 2293
549 4883
550 556
550 560
550 561
550 578
550 583
550 589
550 592
550 940
550 1498
550 1576
550 2113
551 560
551 575
551 585
551 593
551 597
551 722
551 1359
551 1549
551 1771
551 2767
551 2919
552 561
552 565
552 590
552 597
552 599
552 643
552 794
552 2989
553 560
553 563
553 569
553 579
553 590
553 591
553 615
553 1689
554 556
554 571
554 576
554 1743
554 2658
554 3262
554 3386
554 4124
555 580
555 588
555 595
555 597
555 599
555 1343
555 1464
555 1628
555 3320
555 3692
555 3699
555 4835
556 559
556 573
556 587
556 592
556 593
556 912
556 1323
556 3055
556 3604
556 4802
556 4941
557 577
557 589
557 828
557 1318
557 1438
557 1795
557 2047
557 2422
557 3706
558 576
558 607
558 3409
558 3452
558 3574
559 568
559 584
559 587
559 590
559 594
559 1275
559 1304
559 3236
559 3410
559 3412
559 3448
559 3729
559 4607
559 4690
560 571
560 580
560 582
560 591
560 598
560 599
560 3565
560 4073
560 4504
561 564
561 584
561 588
561 590
561 599
561 1368
561 1646
561 2501
561 3015
561 3288
561 4526
561 4662
562 565
562 583
562 585
562 1403
562 2735
562 2844
562 4069
563 566
563 884
563 895
563 1057
563 1063
563 1172
563 1189
563 1659
563 2894
563 2928
563 4174
564 569
564 575
564 579
564 591
564 597
564 2199
564 4076
565 568
565 569
565 591
565 1054
565 3517
565 4451
566 579
566 595
566 1373
566 1989
567 568
567 575
567 582
567 599
567 678
567 1186
567 4399
567 4811
568 573
568 575
568 3733
568 4873
569 575
569 583
569 586
569 1774
569 2481
569 3149
569 3221
569 3243
569 3592
570 571
570 576
570 584
570 588
570 593
570 1901
570 2704
570 3871
570 4375
571 575
571 577
571 580
571 584
571 587
571 1564
571 1795
572 584
572 599
572 3819
573 582
573 584
573 588
573 592
573 3738
573 4212
574 577
574 592
574 1944
574 2187
574 2350
574 3413
574 4020
574 4493
575 577
575 587
575 1245
575 1881
575 1959
575 2740
576 585
576 591
576 1364
576 2377
576 2962
576 3898
576 4552
577 590
577 592
577 597
577 855
577 4138
578 591
578 595
578 596
578 598
578 2385
578 4650
579 593
579 1799
579 2524
579 2780
580 588
580 591
580 3269
580 4612
581 2174
581 2417
581 2515
582 592
582 597
582 598
582 1228
582 2202
582 3186
582 3437
582 4394
583 705
583 1621
583 1764
583 2985
583 4883
584 589
584 4830
585 834
585 933
585 1202
585 1324
585 2410
585 2527
586 707
586 2419
586 2440
586 2973
586 3023
586 3436
586 3613
587 594
587 599
587 1486
587 2817
588 593
588 1190
588 2242
588 2584
588 4203
589 590
589 687
589 2760
589 2847
589 3809
589 4513
589 4578
590 595
590 597
590 1411
590 4053
590 4363
591 759
591 1093
591 1308
591 1369
591 2478
591 3803
591 4107
591 4320
592 593
592 597
592 598
592 1799
592 2424
592 2695
593 594
593 1883
593 3689
593 3700
593 4898
594 2588
594 4423
595 641
595 1413
595 2600
595 2982
595 4065
595 4687
596 1151
596 2038
596 2070
596 2171
596 4925
596 4994
596 4996
597 1522
597 1920
597 2668
597 3774
597 4189
598 1030
598 3496
598 3917
599 607
599 1437
599 1452
599 1779
599 3213
599 3577
599 4066
600 609
600 615
600 631
600 635
600 3495
600 4477
601 603
601 616
601 621
601 627
601 635
601 641
601 647
601 1638
601 2583
601 3187
601 4724
602 615
602 625
602 636
602 641
602 729
602 1500
602 2540
603 630
603 637
603 832
603 977
603 1018
603 1539
603 2342
603 2951
603 3280
603 3802
604 612
604 616
604 1570
604 1651
604 2299
604 2971
604 3932
604 4720
604 4831
604 4838
605 606
605 619
605 621
605 630
605 635
605 637
605 638
605 703
605 780
605 956
605 3827
605 3928
606 613
606 615
606 617
606 618
606 628
606 633
606 639
606 642
606 649
606 811
606 1652
606 1912
606 2926
606 3274
606 3493
606 3580
606 3656
606 3676
607 613
607 615
607 622
607 624
607 634
607 647
607 1052
607 1060
607 2726
607 3160
608 638
608 639
608 647
608 2151
608 2944
608 2972
608 3392
608 3550
608 3657
608 3737
609 615
609 616
609 637
609 646
609 647
609 1698
609 3734
609 4837
610 620
610 632
610 646
610 1413
610 1589
610 2012
610 3274
610 4164
610 4410
611 623
611 2047
611 2431
611 4535
612 613
612 616
612 620
612 633
612 638
612 639
612 642
612 1516
612 4269
613 618
613 625
613 634
613 637
613 638
613 795
613 1037
613 1780
613 2813
614 625
614 904
614 2747
614 3347
614 4454
614 4502
614 4610
614 4983
615 645
615 948
615 1789
615 1847
615 3009
615 3642
615 3708
615 4035
615 4152
615 4637
616 618
616 629
616 638
616 756
616 2043
616 2629
616 3178
616 3960
617 628
617 632
617 643
617 2292
617 2548
617 2558
617 2820
618 624
618 627
618 633
618 637
618 1292
618 2546
618 2883
618 3469
618 4593
619 620
619 633
619 645
619 4206
620 624
620 625
620 643
620 646
620 647
620 2515
621 622
621 4053
622 640
622 718
622 2268
622 3886
623 625
623 627
623 631
623 633
623 649
623 2417
623 2485
623 4832
624 626
624 637
624 643
624 821
624 1001
624 4253
624 4426
625 642
625 649
626 644
626 646
626 2361
626 3281
627 632
627 1891
627 2180
627 3312
628 637
628 640
628 641
628 1468
628 2054
628 3895
628 4207
629 633
629 646
629 649
629 2562
629 4014
630 633
630 642
630 643
630 648
630 3726
630 3748
630 3898
630 4247
630 4712
631 788
631 2978
631 3245
631 4545
632 639
632 642
632 1347
632 1369
632 1619
632 2782
632 3170
632 3288
632 4391
632 4528
632 4622
633 647
633 1167
633 1375
633 3101
633 3113
633 3540
633 3724
633 3763
633 3869
634 1766
634 2703
634 3714
634 4527
635 646
635 704
635 1006
635 1681
635 2472
635 2773
635 4345
636 892
636 2967
636 4449
636 4852
637 705
637 3137
637 3237
637 4445
637 4702
638 945
638 3533
638 4243
638 4652
638 4936
639 4444
639 4445
640 646
640 647
640 648
640 2112
640 2407
640 4892
640 4893
641 642
641 648
642 644
642 1157
642 1175
642 1372
642 2347
642 2723
642 3529
642 4926
643 649
643 725
643 995
643 997
643 2240
643 2645
643 3777
643 4004
643 4429
644 645
644 1138
644 2962
644 3542
646 2196
646 2250
646 2431
646 3637
646 3733
646 4647
647 649
647 1518
647 2887
647 3746
647 3920
647 4473
648 1060
648 2942
649 2367
649 2487
649 2835
649 3393
649 4530
650 657
650 670
650 687
650 693
650 697
650 2196
650 2622
650 2673
651 657
651 665
651 666
651 678
651 699
651 730
651 775
651 1227
651 2155
651 2281
651 2617
651 3356
651 3947
651 4413
652 671
652 676
652 747
652 789
652 802
652 2076
652 3058
652 3896
652 4186
653 656
653 671
653 680
653 681
653 683
653 693
653 1698
653 2763
653 3456
653 3935
653 4130
653 4591
654 661
654 663
654 668
654 672
654 678
654 1687
654 3080
654 3873
654 4569
655 664
655 679
655 681
655 693
655 696
655 697
655 698
655 996
655 1071
655 1235
655 1874
655 2135
655 2593
655 4601
655 4632
656 666
656 674
656 675
656 680
656 689
656 851
656 1276
656 3780
656 3955
656 4864
657 660
657 661
657 662
657 666
657 669
657 675
657 681
657 693
657 744
657 1036
657 1559
657 1908
657 1913
657 4163
657 4621
658 661
658 669
658 676
658 690
658 694
658 1453
658 2861
658 3194
658 3449
658 4193
658 4423
658 4804
659 670
659 679
659 684
659 695
659 2116
659 2586
659 3770
659 3893
659 4430
659 4598
660 663
660 672
660 679
660 680
660 874
660 877
660 1066
660 1283
660 4034
661 668
661 2603
662 667
662 669
662 676
662 677
662 678
662 682
662 684
662 692
662 693
662 695
662 1226
662 2321
662 3097
662 4866
663 669
663 680
663 1422
663 3787
663 3924
663 4986
664 669
664 674
664 680
664 694
664 2309
664 3302
664 4219
664 4571
664 4629
664 4787
665 682
665 685
665 694
665 695
665 698
665 728
665 885
665 957
665 1079
665 1120
665 3123
665 3655
665 4631
665 4901
666 672
666 901
666 1915
666 3394
666 4719
667 676
667 679
667 690
667 1912
667 2449
667 3842
668 680
668 1528
668 2053
668 2118
668 3328
668 4106
668 4572
669 697
669 698
669 1618
669 2309
669 2395
669 3993
669 4483
670 672
670 676
670 677
670 680
670 1571
670 2850
670 3072
670 4777
670 4795
671 673
671 681
671 685
671 692
671 1157
671 2217
671 2494
671 2705
671 3114
671 3236
671 3789
672 679
672 685
672 697
672 2759
672 2786
673 675
673 683
673 2203
673 3716
674 677
674 1561
674 1717
674 1780
674 3966
675 682
675 1575
675 2221
675 2425
675 3148
675 4051
676 682
676 692
676 2141
676 3012
676 4596
677 678
677 694
677 699
677 1476
677 3222
677 3394
677 4024
678 2189
678 4021
678 4980
679 681
679 694
679 1946
679 2571
679 3261
679 4036
679 4459
680 685
680 1175
680 4717
681 686
681 803
681 2034
681 2054
681 2934
681 4135
681 4295
681 4519
681 4655
682 685
682 690
682 1229
682 1583
682 2638
682 3347
682 4393
682 4502
683 685
683 689
683 691
683 837
683 1483
683 2348
683 2825
683 3925
683 3987
683 4512
684 691
684 692
684 903
684 1139
684 2537
684 4179
685 1937
685 1988
685 2245
685 3976
685 4653
686 691
686 1484
686 1823
686 1949
686 2189
686 2436
686 4228
686 4867
687 689
687 690
687 2190
688 790
688 2133
688 2163
688 2214
688 4128
688 4341
689 691
689 694
689 1243
689 2021
689 2183
689 2245
689 2943
690 692
690 695
690 1112
690 2452
690 2930
690 3108
690 4099
691 2047
691 4358
692 698
692 2035
692 2713
692 4481
693 695
693 699
693 996
693 2577
693 4225
693 4617
694 696
694 981
694 1961
694 2916
695 3525
695 4919
695 4957
696 2566
696 3978
696 4392
697 806
697 1600
697 4840
698 1926
698 2413
698 3995
698 4002
699 2462
699 2858
699 3001
699 3068
699 4367
699 4392
700 701
700 711
700 714
700 715
700 718
700 722
700 724
700 730
700 734
700 2683
701 724
701 725
701 726
701 739
701 742
701 2330
701 2486
701 3154
701 4953
702 707
702 718
702 724
702 736
702 737
702 738
702 739
702 822
702 1051
702 1118
702 1204
702 1224
702 1989
702 3502
702 4183
703 716
703 722
703 728
703 734
703 740
703 749
703 2086
703 3319
704 706
704 711
704 728
704 746
704 747
704 1294
704 1505
704 2361
704 2550
704 4340
705 721
705 734
705 749
705 1451
705 4056
705 4617
706 729
706 4427
706 4448
707 714
707 716
707 721
707 740
707 741
707 749
707 1885
707 4028
708 713
708 715
708 727
708 1488
708 4340
709 713
709 720
709 729
709 743
709 2755
709 2766
709 3346
709 4330
709 4565
710 714
710 725
710 736
710 1802
710 2502
710 3008
710 3042
710 3823
710 4044
710 4133
711 712
711 719
711 720
711 731
711 2431
712 715
712 719
712 726
712 734
712 737
712 745
712 749
712 1835
712 2179
712 2254
712 2502
712 2704
712 3251
713 719
713 723
713 729
713 733
713 735
713 747
713 2401
713 2655
713 3348
713 3422
713 4296
713 4482
714 719
714 726
714 735
714 740
714 741
714 747
714 1679
714 1904
714 1927
714 2511
714 3198
714 3856
714 4959
715 740
715 744
715 1482
715 2092
715 2331
715 4528
716 905
716 1818
716 2678
716 3642
716 4236
717 729
717 730
717 738
717 742
717 744
717 746
717 2407
717 2524
717 3150
717 3784
717 4161
717 4580
718 721
718 735
718 737
718 743
718 745
718 2771
718 3797
718 4703
718 4864
719 726
719 2036
719 2163
719 2298
719 2747
719 3062
720 726
720 727
720 731
720 739
720 746
720 1889
720 2016
720 3815
721 723
721 730
721 743
721 744
721 746
721 1265
721 1432
721 2210
721 3309
721 4220
722 749
722 1332
722 1596
722 2782
722 3957
723 737
723 738
723 741
723 742
723 3530
723 4280
723 4523
723 4737
724 726
724 728
724 732
724 746
724 889
724 2515
724 3315
724 4134
725 1544
725 2015
726 730
726 736
726 1145
726 1181
727 732
727 743
727 2382
728 729
728 734
728 744
728 1417
728 2095
728 2259
728 2393
728 2435
728 2503
728 3138
728 4391
729 730
729 736
729 745
729 1181
729 2846
730 733
730 734
730 739
730 1751
730 2672
730 3129
730 3733
730 4152
730 4497
730 4816
731 748
731 749
731 1220
731 1797
731 2925
731 3239
731 3509
732 735
732 737
732 740
732 1682
732 1873
732 2262
732 2274
732 2293
732 2388
732 2929
732 3267
732 4353
733 2541
733 2946
734 1639
734 1778
734 3679
734 4600
735 1640
735 1790
735 3496
735 4861
736 780
736 2763
736 2867
736 2900
736 3143
736 4974
737 1396
737 1458
737 3593
737 4787
737 4856
738 743
738 747
738 749
738 1129
738 2008
738 2611
738 2612
738 3966
739 1203
739 1606
739 4465
740 1319
740 1367
740 1534
740 1879
740 4053
741 1618
742 745
742 2080
742 2346
742 3726
742 4587
743 747
743 779
743 1066
743 2139
743 2653
743 3906
743 4326
743 4898
744 2120
744 2833
744 3254
744 3640
744 3660
744 3795
744 4134
745 2089
745 2211
745 2262
745 2980
745 3818
746 776
746 1042
746 1261
746 1461
746 1586
746 1703
746 4151
746 4413
746 4993
747 2345
747 4425
748 1103
748 2013
748 4823
749 2004
749 2690
749 2699
749 3013
750 758
750 773
750 784
750 787
750 788
750 1960
750 2212
750 3517
750 3934
750 4318
750 4779
751 753
751 761
751 762
751 764
751 766
751 774
751 778
751 957
751 1622
751 1816
751 1855
751 2304
751 3181
751 3618
751 4026
752 763
752 782
752 784
752 795
752 1658
752 4084
752 4657
753 756
753 757
753 764
753 765
753 777
753 781
753 788
753 828
753 1815
753 4834
753 4970
754 757
754 766
754 2401
754 2965
754 3499
754 3606
754 3832
755 770
755 777
755 781
755 981
755 2435
756 767
756 770
756 777
756 850
756 1583
756 2279
756 2744
757 766
757 774
757 785
757 790
757 791
757 793
757 939
757 961
757 2154
757 2364
757 2974
757 3010
757 4389
758 770
758 772
758 773
758 1138
758 2941
758 3003
758 3062
758 3215
759 762
759 765
759 768
759 771
759 1674
759 2030
759 2622
759 2682
759 2985
759 3379
759 4798
760 775
760 776
760 786
760 1550
760 3126
760 3564
760 3889
761 771
761 789
761 2197
761 4649
762 766
762 776
762 778
762 784
762 789
762 2012
762 2773
762 3097
763 774
763 785
763 796
763 1878
763 2463
763 4105
764 773
764 774
764 775
764 789
764 1231
764 1264
764 2557
764 2747
764 4642
765 767
765 988
765 1179
765 1702
765 3054
765 3795
766 778
766 784
766 795
766 2192
766 3120
766 4129
767 781
767 2221
767 3820
768 1758
768 2076
768 2149
768 2967
768 4183
768 4492
769 771
769 784
769 795
769 799
769 2073
769 3004
770 773
770 774
770 784
770 789
770 792
770 793
770 1086
770 1166
770 1209
770 2026
770 2349
770 2350
770 2855
770 2984
770 3685
771 777
771 793
771 1286
771 3726
771 4142
771 4445
771 4922
771 4963
772 775
772 777
772 778
772 783
772 793
772 794
772 799
772 4205
773 777
773 1476
773 2449
773 3066
773 3955
773 4925
774 790
774 797
774 1398
774 1655
774 2010
774 2188
774 2773
774 2777
774 4176
774 4988
775 785
775 786
775 795
775 1456
775 2431
775 2508
775 3105
775 3396
775 3678
775 4238
776 799
776 892
776 1331
776 1426
776 2898
776 3713
777 2541
777 3448
777 3764
778 779
778 786
778 793
778 1326
778 4659
779 4887
780 789
780 798
780 1359
780 2600
780 3657
780 4150
781 782
781 1537
781 2314
781 2716
781 4154
781 4910
781 4936
782 789
782 797
782 3891
782 3935
782 4124
782 4776
783 784
783 786
783 792
783 794
783 799
783 3362
783 4921
784 786
784 787
784 792
784 794
784 797
784 799
784 899
784 1499
784 1970
784 2358
784 2422
784 4464
785 791
785 1291
785 1481
785 1503
785 1755
786 790
786 793
786 796
786 4133
787 852
787 1227
787 1559
787 2177
787 3262
788 789
788 793
788 860
788 2809
788 3606
788 4121
788 4288
789 796
789 1394
789 2221
789 2229
789 2582
790 797
790 1038
790 1242
790 2839
790 3199
790 3700
791 1283
791 2428
791 3225
791 3366
792 795
792 798
792 1051
792 2684
792 3510
792 4587
792 4898
793 795
793 2251
793 2577
793 4600
794 2252
794 3908
795 1697
795 2904
795 3969
796 1305
796 2516
796 2627
796 3685
796 4346
797 2055
797 3589
798 1498
798 2747
798 3682
799 1145
799 2081
799 2549
799 2748
799 3059
799 4152
799 4808
800 802
800 809
800 825
800 828
800 830
800 833
800 837
800 1842
800 2157
800 2371
800 4040
800 4339
801 812
801 818
801 825
801 827
801 2168
801 4418
801 4595
802 818
802 834
802 837
802 932
802 2520
802 2992
802 4442
803 810
803 811
803 822
803 3148
804 818
804 822
804 3119
804 3356
804 4459
805 806
805 810
805 824
805 829
805 832
805 841
805 844
805 846
805 848
805 2544
805 4949
806 813
806 815
806 821
806 832
806 841
806 2991
807 812
807 817
807 819
807 821
807 827
807 839
807 1770
808 810
808 826
808 848
808 2330
809 814
809 824
809 827
809 829
809 831
809 832
809 837
809 839
809 848
809 915
809 2006
809 3871
809 4575
809 4596
810 823
810 825
810 840
810 2224
810 3390
810 4407
810 4698
811 812
811 818
811 845
811 2620
811 3798
811 4290
812 817
812 820
812 831
812 838
812 842
812 1821
812 4163
812 4611
813 836
813 841
813 1806
813 3563
813 3909
813 4982
814 828
814 834
814 841
814 842
814 846
814 1058
814 2624
814 4200
814 4429
815 834
815 841
815 842
815 1485
815 1608
815 1794
815 2238
815 2651
815 3318
815 3336
816 826
816 844
816 845
816 847
816 1927
816 2949
816 4253
816 4322
816 4958
817 834
817 842
817 844
817 3357
817 3495
817 3867
817 4960
818 824
818 837
818 840
818 1847
818 4469
819 822
819 826
819 829
819 834
819 838
819 847
819 1916
819 2970
819 3029
819 3858
819 4597
819 4871
820 823
820 826
820 845
820 846
820 2273
820 2325
820 3082
820 3477
820 4847
820 4895
821 825
821 826
821 830
821 839
821 840
821 845
821 847
821 4594
822 824
822 825
822 826
822 841
822 1194
822 1830
822 2728
822 3011
822 3595
823 831
824 830
824 833
824 845
824 2278
824 3329
824 4634
824 4974
825 831
825 837
825 849
825 1910
825 2648
825 3571
825 4528
826 1157
826 1651
826 1827
826 1843
826 2520
826 3053
826 3870
826 3934
827 1373
827 1615
827 2946
827 4506
828 834
828 847
828 2824
828 3935
829 1762
829 2043
829 3586
829 4368
830 831
830 836
830 841
830 847
830 938
830 1372
830 1750
830 3593
830 3692
830 4168
831 837
831 852
831 931
831 932
831 1291
831 3730
831 4096
831 4482
832 835
832 839
832 929
832 1121
832 2906
832 3780
832 3876
832 4477
833 836
833 837
833 2151
833 2897
833 2901
833 3620
833 4638
834 843
834 845
834 1732
834 3294
834 3867
834 3983
835 837
835 1034
835 1475
835 2610
835 3906
835 4151
836 2751
836 3199
836 3931
837 842
837 848
837 1781
837 1915
837 3819
837 4295
838 841
838 842
838 1349
838 2617
838 4088
838 4620
838 4642
839 843
839 1074
839 1712
839 1923
839 2653
839 2814
839 3802
840 842
840 843
840 846
840 848
840 950
840 1332
840 2501
840 2927
840 3403
840 3998
840 4372
841 889
841 986
841 1038
841 3859
841 4065
841 4576
842 1039
842 1681
842 1700
842 3085
842 3584
842 4123
842 4320
843 849
843 1745
843 2033
843 2647
843 3068
843 3073
843 4435
844 846
844 847
844 1358
844 4649
845 2686
845 3061
846 937
846 1243
846 2011
846 2807
846 3998
847 848
847 3378
848 849
848 1089
848 3719
848 4304
848 4337
848 4380
848 4448
849 2449
849 3485
849 4818
850 861
850 868
850 1969
850 3368
851 872
851 876
851 878
851 886
851 891
851 1294
851 2510
851 2638
851 3592
851 3830
851 4109
851 4333
851 4400
852 859
852 861
852 868
852 877
852 890
852 894
852 1606
852 3024
853 871
853 873
853 879
853 887
853 897
853 2945
853 3188
853 3861
853 4919
854 862
854 866
854 880
854 1956
854 4762
855 860
855 861
855 864
855 877
855 886
855 889
855 1011
855 4154
855 4296
855 4691
856 869
856 874
856 879
856 881
856 1151
856 1869
856 2560
856 3756
856 3892
856 4238
856 4344
856 4371
856 4802
857 861
857 863
857 865
857 875
857 877
857 881
857 892
857 1276
857 1532
857 3094
858 859
858 867
858 872
858 891
858 892
858 1445
858 1543
858 1709
858 4158
859 861
859 862
859 877
859 892
859 895
859 899
859 1489
859 1509
859 2333
859 2630
859 3815
860 878
860 881
860 882
860 895
860 2506
860 3880
860 4744
860 4804
861 873
861 875
861 881
861 887
861 1380
861 2112
861 3495
861 3685
862 868
862 874
862 880
862 1014
862 1506
862 2365
862 3147
862 4432
863 864
863 878
863 894
863 2983
863 3823
863 4175
864 870
864 872
864 878
864 888
864 2601
864 4495
865 888
865 899
865 1747
865 1990
865 2504
865 2596
865 3944
865 4817
865 4835
866 869
866 871
866 888
866 1978
866 2180
866 2247
866 2794
866 3831
866 4003
866 4664
867 877
867 881
867 886
867 1884
867 1947
867 2078
867 2226
867 3089
867 4333
868 877
868 897
868 2144
868 2886
868 3549
869 875
869 881
869 899
869 3001
869 3379
869 4642
870 885
870 899
870 1783
870 3252
870 3614
870 3669
871 876
871 881
871 884
871 887
871 2958
872 1868
872 2761
872 3142
872 3570
872 4579
873 897
873 4298
873 4380
874 890
874 894
874 898
874 2282
874 3304
874 4069
875 886
875 887
875 895
875 1216
875 1533
875 2765
875 3737
875 4959
876 889
877 1532
877 2657
877 3994
877 4401
878 884
878 887
879 885
879 886
879 2524
879 3215
879 3969
880 885
880 897
880 899
880 1835
880 2225
880 2639
880 3052
880 4244
881 1279
881 1361
881 1656
881 3630
882 888
882 894
882 1323
882 2129
882 2752
882 2943
882 3231
882 3559
882 4598
882 4814
883 893
883 897
883 1418
883 1458
883 2222
883 4032
884 890
884 893
884 898
884 2700
884 4432
884 4518
884 4934
885 889
885 895
885 1545
885 1671
885 1910
885 3462
885 4015
885 4436
886 1112
886 2094
886 2609
887 898
887 899
887 1532
887 2217
887 3390
887 3447
887 3541
887 4355
887 4743
888 892
888 1902
888 2072
888 2976
888 3469
888 3732
889 890
889 899
889 3019
889 3202
889 3278
889 3543
889 3574
889 3599
889 3857
889 4053
890 896
890 897
890 2789
890 3128
890 3278
890 4596
891 893
891 2491
891 2899
891 3309
892 1098
892 1584
892 2457
892 2893
892 4621
893 899
893 920
893 1369
893 1623
893 2225
893 2377
893 2698
893 4176
893 4805
894 2956
894 3012
894 3605
895 1077
896 3077
896 3315
896 3320
897 1272
897 1462
897 2116
897 2526
897 3338
898 2651
898 3329
898 4271
898 4394
899 1778
899 1906
899 3232
899 3428
900 910
900 912
900 931
900 935
900 937
900 945
900 1556
900 1573
900 1961
900 3130
900 3330
900 4426
901 909
901 923
901 1543
901 2227
901 2418
901 3630
901 3988
902 910
902 913
902 916
902 928
902 932
902 947
902 1162
902 1601
902 3061
902 3566
902 3795
902 4047
902 4608
903 915
903 922
903 947
903 4314
904 929
904 932
904 933
904 945
904 952
904 1742
905 918
905 2603
905 2604
905 2841
905 3383
905 3977
906 938
906 939
906 968
906 1419
906 1474
906 2701
907 924
907 926
907 933
907 937
907 938
907 941
907 1224
907 1825
907 3780
907 4719
908 912
908 921
908 1227
908 1365
908 1490
908 2115
908 2558
908 3624
909 923
909 941
909 1511
909 1802
909 1921
909 2330
909 2391
910 935
910 937
910 1581
910 3968
910 4758
911 913
911 925
911 926
911 2811
911 3041
911 3088
911 3271
911 4098
912 921
912 933
912 941
912 2393
912 3387
912 3595
912 4060
912 4081
912 4712
913 914
913 928
913 949
913 3905
913 4301
913 4667
914 938
914 1188
914 1536
914 1876
914 2265
914 2645
914 4006
914 4042
915 918
915 919
915 921
915 922
915 927
915 928
915 947
915 948
915 3817
915 4325
916 919
916 930
916 941
916 942
916 944
916 945
916 948
916 1268
916 1604
916 2259
916 2811
916 2944
916 4898
917 922
917 945
917 948
917 3295
917 3495
917 4705
918 925
918 927
918 1258
918 1366
918 1753
918 1801
918 2523
918 4612
919 924
919 1074
919 1431
919 3037
919 3934
919 4455
919 4577
920 931
920 945
920 2644
920 2716
921 934
921 1317
921 1608
921 3561
922 925
922 928
922 948
922 1824
923 936
923 939
923 943
923 1081
923 1436
923 1934
923 2542
923 2736
923 4811
924 925
924 942
924 949
924 4722
925 926
925 945
925 1332
925 2259
925 2339
925 2454
925 2976
926 934
926 949
926 2194
926 2550
926 3333
926 3530
926 4622
926 4712
927 928
927 941
927 942
927 946
927 2307
927 2379
927 3648
927 4471
928 935
928 942
928 1495
928 2663
928 3012
928 4194
929 937
929 2122
929 3374
929 4101
929 4999
930 1219
930 2087
930 2733
931 933
931 1416
931 1426
931 1733
931 2349
931 2649
931 2934
931 4216
932 937
932 945
932 1283
932 4186
932 4874
933 938
933 2956
933 4328
934 4205
935 940
935 2862
935 3109
935 3408
936 944
936 948
936 1183
936 4088
937 3419
938 940
938 945
938 2110
938 2483
938 3277
938 3541
939 943
939 1099
939 1780
939 4388
939 4556
940 941
940 3388
940 3433
940 3800
941 945
941 949
941 1534
941 4224
941 4316
942 949
942 1000
942 1170
942 1292
942 1521
942 1654
942 2012
942 2077
942 3018
942 4519
943 944
943 945
943 1538
943 1974
943 2059
943 2083
943 3106
943 4160
943 4518
944 1782
944 2208
944 2623
944 2688
944 3171
944 3515
945 1787
945 2318
945 3903
945 4230
946 1276
946 1986
946 2978
947 1125
947 2457
947 3842
947 4531
947 4666
948 1481
949 1837
949 4471
949 4738
950 953
950 970
950 973
950 976
950 979
950 989
950 1571
950 2166
950 3557
950 4028
950 4933
951 955
951 957
951 967
951 990
951 997
951 1542
951 1700
951 1709
951 3197
952 975
952 993
952 3813
953 956
953 957
953 959
953 967
953 978
953 979
953 989
953 995
953 999
953 2181
953 2885
953 3965
953 4791
954 977
954 1884
954 2375
954 3081
954 3204
954 3722
954 3810
955 956
955 958
955 979
955 993
955 1813
955 1894
956 958
956 968
956 977
956 991
956 995
956 996
956 2620
956 3754
957 965
957 2435
957 3868
957 4262
958 965
958 979
958 984
958 985
958 996
958 1983
958 3683
958 3763
958 4750
959 974
959 978
959 979
959 990
959 992
959 993
959 2081
959 2202
959 4887
960 965
960 968
960 974
960 985
960 987
960 999
960 2901
960 3311
960 4634
961 979
961 997
961 1277
961 1572
961 1576
961 2438
961 2738
961 2805
961 3837
961 4910
962 967
962 1370
962 2293
962 4419
963 964
963 967
963 987
963 1923
963 3993
963 4128
963 4398
964 993
964 1495
964 1891
964 1920
964 2045
964 2058
964 2299
964 2720
964 2860
964 3280
964 3778
964 4453
965 967
965 968
965 974
965 981
965 989
965 993
965 994
965 997
965 1269
965 1993
965 3719
965 4945
966 968
966 980
966 995
966 1282
966 1515
966 1967
966 2904
966 3812
967 971
967 977
967 984
967 992
967 999
967 2547
967 3273
967 3857
967 4342
967 4717
968 1431
968 1864
968 2572
968 3509
968 3560
968 4135
968 4167
968 4524
968 4868
969 975
969 976
969 982
969 987
969 995
969 1088
969 2675
969 3935
970 977
970 989
970 993
970 1919
970 3406
970 3732
970 3761
971 978
971 989
971 994
971 4378
971 4605
971 4726
971 4831
972 980
972 992
972 998
972 1005
972 3888
973 988
973 989
973 997
973 998
973 1055
973 4219
974 976
974 1625
974 4283
975 982
975 988
975 999
975 3125
975 4556
976 977
976 997
976 1155
976 4635
976 4853
977 987
977 998
977 2628
977 2899
977 4979
978 980
978 981
978 3257
978 3392
978 3793
978 3857
978 4851
979 984
979 985
979 990
979 996
979 998
979 1463
979 1601
979 2196
980 982
980 1540
980 3498
980 4535
980 4925
981 983
981 993
981 1670
981 3493
981 3682
981 4074
981 4140
982 996
982 999
982 2015
982 4183
983 985
983 993
983 1639
983 3110
983 3281
983 4883
984 1285
984 1476
984 2922
984 4141
984 4989
985 987
985 988
985 998
985 3683
986 1665
986 2179
986 2916
986 4349
986 4379
987 994
987 998
987 2860
987 3962
987 4190
988 1179
988 2310
988 2992
988 3116
989 999
989 2586
989 3009
989 4247
989 4294
989 4431
989 4986
990 995
990 1592
990 1646
990 2135
990 3409
991 1627
991 1637
991 3513
992 1041
992 2254
992 2807
992 4754
993 995
993 998
993 1861
993 3448
993 4573
994 998
994 2512
994 3993
995 1729
995 2941
995 3283
995 3808
995 4729
995 4978
996 2579
996 3093
996 3235
996 4301
997 998
997 1662
997 2366
997 3401
997 3914
997 4323
998 2127
998 2494
998 2496
998 3856
999 1240
999 1639
999 1765
999 2115
999 3752
999 4094
999 4974
1000 1014
1000 1018
1000 1019
1000 1028
1000 1038
1000 1044
1000 2210
1000 3061
1001 1003
1001 1020
1001 1035
1001 1041
1001 3708
1001 4827
1002 1003
1002 1005
1002 1007
1002 1013
1002 1028
1002 1036
1002 1037
1002 1046
1002 1369
1002 2078
1002 2209
1002 4445
1003 1005
1003 1013
1003 1019
1003 1024
1003 1046
1003 1453
1003 2707
1003 2784
1003 3630
1003 4640
1004 1013
1004 1015
1004 1021
1004 1031
1004 1036
1004 1049
1004 1294
1004 2257
1004 2278
1004 3229
1004 3832
1004 4229
1004 4796
1005 1006
1005 1014
1005 1016
1005 1030
1005 1033
1005 1359
1005 2029
1005 3655
1006 1008
1006 1014
1006 1022
1006 1026
1006 1031
1006 1047
1006 1464
1006 2915
1006 3776
1007 1018
1007 1025
1007 1047
1007 1309
1007 3047
1007 3382
1007 4447
1007 4760
1007 4762
1008 1009
1008 1014
1008 1019
1008 1025
1008 1035
1008 1042
1008 2697
1008 3072
1008 3157
1008 3779
1009 1020
1009 1026
1009 1028
1009 3081
1009 3535
1009 3756
1010 1032
1010 1840
1010 2293
1010 2328
1010 2469
1010 3074
1010 3291
1010 3416
1010 3615
1010 4180
1010 4693
1011 1016
1011 1018
1011 1038
1011 1042
1011 3197
1012 1016
1012 1026
1012 1029
1012 2424
1012 2986
1012 3787
1012 4604
1013 1016
1013 1021
1013 1035
1013 1134
1013 1200
1013 1277
1013 2097
1013 2864
1013 4168
1013 4278
1013 4957
1014 1018
1014 1020
1014 1023
1014 1039
1014 1041
1014 1205
1014 2089
1014 3398
1014 3424
1014 3572
1014 3773
1014 3801
1015 1028
1015 1038
1015 1506
1015 2100
1015 4416
1015 4850
1016 1018
1016 1033
1016 1038
1016 1039
1016 1043
1016 1048
1016 1176
1016 2371
1016 2562
1016 3332
1017 1020
1017 1022
1017 1030
1017 1032
1017 1192
1017 2334
1017 3897
1017 4458
1018 1022
1018 1040
1018 1048
1018 1130
1019 1022
1019 1039
1019 1040
1019 1047
1019 2288
1019 4491
1020 1028
1020 1033
1020 1529
1020 3308
1020 3433
1020 4872
1020 4902
1021 1027
1021 1028
1021 1031
1021 1032
1021 1529
1021 2666
1021 3656
1022 1026
1022 1049
1022 1202
1022 3567
1023 1045
1023 1049
1023 1661
1023 4219
1023 4286
1024 1046
1024 2518
1024 2715
1024 3351
1025 1035
1025 1037
1025 2509
1025 2816
1025 3514
1025 4233
1026 1034
1026 1040
1026 1330
1026 2801
1026 4337
1027 1028
1027 1033
1027 1035
1027 1525
1027 2226
1027 4929
1027 4934
1028 1672
1028 1813
1028 2223
1028 2774
1028 4536
1029 1036
1029 1218
1029 2555
1029 2816
1029 3589
1029 3753
1029 4068
1029 4128
1030 4512
1031 1039
1031 1042
1031 2381
1031 2679
1031 3930
1032 1034
1032 1037
1032 1177
1032 1482
1032 2186
1033 1034
1033 1040
1033 1092
1033 1121
1033 2520
1033 4826
1033 4875
1035 1660
1035 3679
1035 4982
1036 2396
1036 3406
1036 4962
1037 2631
1037 3480
1038 2057
1038 2215
1038 2365
1038 2898
1038 3010
1038 3165
1038 4130
1039 2183
1040 1042
1040 1045
1040 1642
1040 2181
1040 2914
1040 3146
1040 3346
1040 4428
1040 4849
1041 1237
1041 1298
1041 4730
1042 1045
1042 1046
1042 1655
1042 1932
1042 3055
1042 4724
1043 1151
1043 3329
1043 3751
1044 1858
1044 2582
1044 2663
1044 3483
1044 3532
1045 1046
1045 1127
1045 1371
1045 2167
1045 2762
1045 2957
1045 3388
1046 2910
1046 4914
1047 1163
1047 2776
1047 3436
1047 3677
1047 3800
1047 4051
1047 4686
1047 4942
1048 1152
1048 1833
1048 2902
1048 4024
1049 2981
1049 3451
1050 1082
1050 1097
1050 1407
1050 2475
1050 2654
1051 1072
1051 1076
1051 1089
1051 1865
1051 2340
1051 4584
1052 1054
1052 1058
1052 1073
1052 1081
1052 1085
1052 1089
1052 2629
1052 2681
1052 3870
1052 4622
1052 4657
1052 4806
1053 1056
1053 1076
1053 1078
1053 1082
1053 2140
1053 4776
1053 4808
1053 4809
1054 1057
1054 1059
1054 1060
1054 1342
1054 1750
1054 2371
1054 3052
1054 4214
1055 1066
1055 1080
1055 1081
1055 1084
1055 1087
1055 3031
1056 1057
1056 1060
1056 1065
1056 1071
1056 1080
1056 1084
1056 1099
1056 4423
1056 4713
1057 1058
1057 1082
1057 1087
1057 1095
1057 4105
1058 1064
1058 1078
1058 1081
1058 1608
1058 1690
1058 3527
1058 3754
1058 4919
1059 1060
1059 1064
1059 1066
1059 1068
1059 1076
1059 3038
1059 3694
1060 1067
1060 1069
1060 1082
1060 1085
1060 1091
1060 1099
1060 1695
1060 1922
1060 2348
1060 2649
1060 3469
1060 4748
1061 1075
1061 1083
1061 1096
1061 1302
1061 1690
1061 2631
1061 2999
1061 3175
1061 3234
1061 3548
1061 3720
1061 4760
1062 1063
1062 1069
1062 1080
1062 1085
1062 1086
1062 1096
1062 3334
1062 4423
1063 1069
1063 1081
1063 1084
1063 1090
1063 2341
1063 3371
1063 3941
1064 1089
1064 3472
1065 1096
1065 1292
1065 2378
1065 3061
1065 3424
1065 3909
1066 1071
1066 1075
1066 1084
1066 3546
1067 1071
1067 1073
1067 2066
1067 3795
1067 4884
1068 1080
1068 1098
1068 1619
1068 2060
1068 2128
1068 2147
1068 2159
1069 1079
1069 1354
1069 1561
1069 3713
1070 1314
1070 2467
1070 3325
1070 3567
1071 1077
1071 1080
1071 1348
1071 3196
1072 1099
1072 3616
1073 1085
1073 1092
1073 1095
1073 1098
1073 1151
1073 4583
1073 4588
1074 1091
1074 3089
1074 4032
1075 1086
1075 1095
1075 1098
1075 1099
1075 1831
1075 4931
1076 1079
1076 1090
1076 1096
1076 3323
1076 3336
1076 3831
1077 1081
1077 1097
1077 1099
1077 2458
1077 3032
1077 4061
1077 4495
1077 4546
1077 4866
1078 1629
1078 2528
1078 2783
1078 2906
1078 3603
1078 4410
1078 4499
1079 1084
1079 1088
1079 1529
1079 2336
1079 3729
1079 4081
1079 4988
1080 1086
1080 1742
1080 4140
1081 1085
1081 1096
1081 1473
1081 1853
1081 2082
1081 2107
1081 3902
1081 4708
1081 4877
1082 1086
1082 1092
1082 1096
1082 1397
1082 1426
1082 1856
1082 2489
1082 2506
1082 2863
1082 3226
1082 3505
1082 3966
1082 4275
1082 4378
1083 1094
1083 3673
1083 3973
1083 4163
1083 4578
1083 4724
1083 4832
1084 1097
1084 1103
1084 1742
1085 1093
1085 1098
1085 1748
1085 2073
1085 2207
1085 2843
1085 3343
1085 4288
1085 4412
1085 4513
1085 4947
1086 1089
1086 1099
1086 1706
1086 2595
1086 3183
1086 4423
1086 4490
1086 4576
1087 1094
1087 1096
1087 1099
1087 1902
1087 2541
1087 3444
1087 3990
1088 1090
1088 1707
1088 2020
1088 2168
1089 1380
1089 3085
1089 3282
1090 1098
1090 1716
1090 3412
1090 3965
1090 4517
1090 4818
1091 1701
1091 1838
1091 2271
1091 4601
1092 1093
1092 2003
1092 2891
1092 4334
1093 2878
1093 3126
1093 4711
1093 4962
1094 1476
1094 1532
1094 4174
1094 4293
1095 1098
1095 3059
1095 3764
1095 4331
1096 1870
1096 2166
1096 2598
1096 2755
1096 2797
1096 2832
1096 4791
1096 4891
1097 2028
1097 2297
1098 1942
1098 2495
1098 4365
1099 1231
1099 2038
1099 2975
1099 3339
1099 4225
1099 4420
1100 1102
1100 1105
1100 1110
1100 1116
1100 1118
1100 1124
1100 1125
1100 1126
1100 1131
1100 1142
1100 1718
1100 2590
1100 3614
1100 4314
1100 4762
1101 1129
1101 1131
1101 1143
1101 1147
1101 1148
1101 1165
1101 1297
1101 3002
1102 1110
1102 1147
1102 1249
1102 2992
1102 3460
1102 3536
1102 4110
1102 4199
1103 1105
1103 1107
1103 1131
1103 2096
1103 2299
1103 3694
1103 3919
1103 4174
1103 4437
1104 1122
1104 1149
1104 3343
1104 3551
1105 1107
1105 1117
1105 1118
1105 1142
1105 2383
1105 2504
1105 2538
1105 2980
1105 3868
1106 1135
1106 1141
1106 1146
1106 2155
1106 2742
1106 4339
1107 1125
1107 1127
1107 1128
1107 1136
1107 1148
1107 1264
1107 1495
1107 3005
1107 4204
1108 1110
1108 1113
1108 1120
1108 1122
1108 1126
1108 1128
1108 1255
1108 1761
1108 2097
1108 2131
1108 3091
1108 4989
1109 1122
1109 1130
1109 1131
1109 1134
1109 1135
1109 1137
1109 1145
1109 1149
1109 2802
1109 4763
1109 4826
1110 1140
1110 1260
1110 1479
1110 1660
1110 1875
1110 2366
1110 3277
1110 3958
1110 4361
1111 1116
1111 1117
1111 1120
1111 1123
1111 1135
1112 1128
1112 1130
1112 1142
1112 1146
1112 1828
1112 2358
1112 3224
1113 1119
1113 1133
1113 1136
1113 1142
1113 1611
1113 1892
1113 2011
1114 2794
1114 3736
1115 1120
1115 1122
1115 1134
1115 1147
1115 1709
1115 2851
1115 4354
1116 1117
1116 1126
1116 1134
1116 1139
1116 1145
1116 2477
1116 2692
1116 2932
1116 3390
1116 3657
1116 3672
1117 1141
1117 1143
1117 1547
1117 1674
1117 1685
1117 2080
1117 2495
1117 2900
1117 4477
1118 1122
1118 1143
1118 2050
1118 2349
1119 1123
1119 1127
1119 2224
1119 4365
1120 1126
1120 1142
1120 1146
1120 1148
1120 1900
1120 2114
1120 2136
1120 4976
1121 1122
1121 1127
1121 1134
1121 1146
1121 1147
1121 2349
1121 2847
1121 2923
1121 3462
1121 3675
1121 4224
1121 4513
1122 1125
1122 1138
1122 1141
1122 1983
1122 2111
1122 2501
1122 2718
1122 3016
1122 3117
1123 1126
1123 1135
1123 1146
1123 1240
1123 2659
1123 2689
1123 3349
1123 3847
1123 4216
1124 1144
1124 1149
1124 3036
1124 3104
1124 3317
1124 3518
1125 1134
1125 1142
1125 1149
1125 1933
1125 2130
1125 3416
1125 4167
1126 1134
1126 1148
1126 1149
1126 2225
1126 2776
1126 4141
1126 4602
1127 1139
1127 1142
1127 1149
1127 4359
1128 1129
1128 1132
1128 1133
1128 1140
1128 1149
1128 1238
1128 2647
1128 3230
1128 3530
1128 4970
1129 1133
1129 2098
1129 2498
1130 1146
1130 3113
1130 3204
1130 3966
1130 4269
1130 4741
1131 2036
1131 2846
1131 3904
1132 1139
1132 1824
1132 1946
1132 2564
1132 3061
1133 1137
1133 1146
1133 3059
1133 3314
1134 1139
1134 1142
1134 1146
1134 2360
1134 3182
1134 4567
1135 1136
1135 1149
1135 1619
1135 1978
1136 1145
1136 1146
1136 2161
1136 2789
1136 3162
1136 4849
1137 1138
1137 1140
1137 1147
1137 1626
1137 1889
1137 4281
1138 1315
1138 1743
1138 1826
1138 2505
1139 1142
1139 1144
1139 1146
1139 4414
1139 4777
1140 2993
1141 1142
1141 1143
1141 1364
1142 1146
1142 3095
1142 3211
1142 3832
1142 3981
1143 1145
1143 1149
1143 2091
1143 3656
1143 3894
1143 4479
1144 3676
1144 3680
1144 4401
1144 4436
1145 1539
1145 1691
1145 3586
1145 3840
1145 4330
1145 4418
1146 1640
1146 4160
1146 4668
1147 1833
1147 2213
1148 1149
1148 4521
1149 1793
1149 2303
1149 2993
1149 3064
1150 1154
1150 1155
1150 1192
1150 1193
1150 3692
1150 3789
1151 1172
1151 1199
1151 1602
1151 1749
1151 2084
1151 2277
1151 2999
1151 3789
1151 4174
1151 4687
1151 4758
1152 1153
1152 1160
1152 1173
1152 1177
1152 1180
1152 1190
1152 1817
1152 3618
1153 1168
1153 1181
1153 1188
1153 1196
1153 2347
1153 2441
1153 3093
1153 3308
1153 3801
1153 4042
1154 1179
1154 1187
1154 1194
1154 1197
1154 1381
1154 2374
1154 4185
1154 4319
1155 1156
1155 1167
1155 1181
1155 1186
1155 1197
1155 4732
1156 1160
1156 1161
1156 1170
1156 1174
1156 1183
1156 1185
1156 2634
1156 3621
1156 4123
1157 1162
1157 1165
1157 1167
1157 1172
1157 1182
1157 1189
1157 2690
1157 3118
1157 3902
1158 1160
1158 1164
1158 1184
1158 1188
1158 1189
1158 1197
1158 4415
1159 1177
1159 1184
1159 1187
1159 1194
1159 1299
1159 1753
1159 2662
1159 4524
1160 1170
1160 1174
1160 1189
1160 1197
1160 3014
1160 3610
1161 1179
1161 1180
1161 1181
1161 1182
1161 1194
1161 1196
1161 2082
1161 2127
1161 3849
1161 4438
1162 1165
1162 1185
1162 1187
1162 1197
1162 3316
1163 3642
1163 4568
1164 1166
1164 1171
1164 1174
1164 1176
1164 1179
1164 1181
1164 1182
1164 1440
1164 2328
1164 4084
1164 4178
1165 1168
1165 1198
1165 3447
1165 3885
1166 1168
1166 1170
1166 1172
1166 1183
1166 1186
1166 1192
1166 1195
1166 2504
1166 2637
1166 2791
1166 3308
1166 4043
1166 4279
1166 4557
1167 1452
1167 2757
1167 3303
1168 1170
1168 1183
1168 1188
1168 2202
1168 2277
1168 2357
1168 4741
1169 1181
1169 1192
1169 1659
1169 1823
1169 3090
1169 3358
1169 3367
1169 4773
1169 4782
1170 1177
1170 1193
1170 3351
1170 4312
1170 4581
1171 1178
1171 1183
1171 1454
1171 1824
1171 3976
1171 4486
1172 1181
1172 1195
1172 1829
1172 3341
1173 1181
1173 1183
1173 1188
1173 1199
1173 4006
1173 4208
1173 4256
1174 3611
1174 4569
1175 1176
1175 1181
1175 1187
1175 1197
1175 1691
1175 1952
1175 2074
1175 2509
1175 3385
1175 3687
1175 4698
1175 4876
1176 1182
1176 1199
1176 1538
1176 1558
1176 2427
1176 3413
1177 1186
1177 3049
1178 1187
1178 1192
1178 1194
1178 2629
1178 3190
1178 3365
1178 4708
1179 1189
1179 1515
1180 1182
1180 1188
1180 1197
1180 1900
1180 2962
1180 3840
1180 4050
1180 4122
1181 1183
1181 1199
1182 1192
1183 1186
1183 1191
1183 1193
1183 1199
1183 1537
1183 3102
1183 3857
1184 1187
1184 1900
1184 3452
1184 3510
1184 4142
1185 1196
1185 1394
1185 2987
1185 4394
1185 4944
1186 1187
1186 1454
1187 2156
1187 3581
1187 3613
1188 1190
1188 1194
1188 1851
1188 1997
1188 3595
1188 4243
1189 1798
1189 2444
1189 2615
1190 1194
1190 1974
1190 4851
1191 1193
1191 1960
1191 2259
1191 2699
1191 3650
1191 4827
1192 3480
1192 4995
1193 1197
1193 3156
1193 3945
1194 1197
1194 1199
1194 1570
1194 1661
1194 3493
1194 3828
1194 4305
1195 1429
1195 4956
1196 1478
1196 2094
1196 3678
1196 3916
1197 1199
1197 1213
1197 1394
1197 4418
1198 1199
1198 1331
1198 2703
1199 1242
1199 1940
1199 1979
1199 2719
1199 3056
1199 3248
1199 3267
1199 3335
1199 3430
1199 3545
1199 4511
1200 1210
1200 1211
1200 1225
1200 1226
1200 1236
1200 1248
1200 2873
1200 3112
1200 3987
1200 4376
1200 4740
1201 1211
1201 1220
1201 1240
1201 1243
1201 1249
1201 3409
1201 4599
1202 1205
1202 1234
1202 1370
1202 1549
1202 3841
1203 1208
1203 1213
1203 1237
1203 1238
1203 1522
1203 1740
1203 1984
1203 2760
1203 2768
1203 3120
1204 1221
1204 1241
1204 1245
1204 3963
1204 4099
1205 1214
1205 1246
1205 1249
1205 1263
1205 4884
1206 1213
1206 1230
1206 1236
1206 1243
1206 1312
1206 2873
1207 1224
1207 1231
1207 1241
1207 1246
1207 1248
1207 1872
1207 2191
1207 2530
1207 4448
1208 1234
1208 3926
1208 3955
1208 4363
1208 4390
1209 1227
1209 1239
1209 1297
1209 2034
1209 3780
1210 1216
1210 1218
1210 1244
1210 1248
1210 1337
1210 1355
1210 3535
1210 3739
1210 4502
1211 1233
1211 1234
1211 1243
1211 1803
1211 2028
1211 2256
1211 2623
1211 2908
1211 3470
1211 3758
1211 4300
1211 4583
1212 1215
1212 1223
1212 1231
1212 1256
1212 2776
1212 3665
1212 4652
1213 1240
1213 3072
1213 3519
1214 1217
1214 1244
1214 2535
1214 3105
1214 3491
1214 4283
1215 1216
1215 1219
1215 1229
1215 1233
1215 1248
1215 1958
1215 2541
1215 2664
1215 2763
1215 2917
1215 3688
1215 4856
1216 1221
1216 1242
1216 2539
1216 3467
1216 3510
1216 3627
1216 4099
1216 4763
1217 1239
1217 1249
1217 1584
1217 1603
1217 2178
1217 2477
1217 2503
1217 3285
1218 1224
1218 1228
1218 1230
1218 1231
1218 1329
1218 1489
1218 1955
1218 2294
1218 2952
1219 2732
1219 4314
1219 4856
1220 1231
1220 1233
1220 1237
1220 1240
1220 1390
1220 3556
1220 3659
1221 1244
1221 1249
1221 1909
1221 2012
1221 3045
1221 3219
1221 4651
1222 1226
1222 1243
1222 1247
1222 1641
1222 1670
1222 2195
1222 2756
1222 4975
1223 1234
1223 1249
1223 1417
1223 1462
1223 1558
1223 3902
1224 1236
1224 1245
1224 1247
1224 2139
1224 3294
1224 4975
1225 4932
1226 1228
1226 1687
1226 2447
1226 3488
1226 4420
1226 4567
1227 1234
1227 1237
1227 1594
1227 1633
1227 1840
1227 2119
1227 2450
1227 2574
1227 2592
1227 3768
1227 4380
1227 4827
1227 4855
1227 4884
1228 1293
1228 4143
1228 4232
1228 4427
1229 1881
1229 1994
1229 3678
1230 2023
1230 3130
1231 1247
1231 1504
1231 1841
1231 2600
1231 3577
1231 4385
1231 4548
1231 4582
1231 4786
1232 1240
1232 1249
1232 2052
1232 3118
1233 1234
1233 1238
1233 1247
1233 1604
1233 2814
1233 3416
1233 3431
1234 1239
1234 1247
1234 1248
1234 2255
1234 2559
1234 4598
1235 1256
1235 1312
1235 1409
1235 1976
1235 2782
1236 1248
1236 2435
1236 4166
1236 4260
1237 1240
1237 1245
1237 1535
1237 2811
1237 2870
1237 3134
1237 3690
1237 4103
1237 4785
1238 1555
1238 4609
1239 2442
1239 3199
1240 1249
1240 2426
1240 2536
1240 3684
1240 3820
1240 4227
1240 4290
1240 4877
1241 1246
1241 1646
1241 2476
1241 3249
1242 1247
1242 1249
1242 1769
1242 3218
1243 1246
1243 1894
1243 2922
1244 3181
1244 3601
1244 4149
1244 4607
1245 1772
1245 3376
1246 1249
1246 4898
1247 3114
1247 4670
1248 1967
1248 2133
1248 4482
1249 3564
1249 4128
1249 4400
1250 1288
1250 1291
1250 1295
1250 1296
1250 2910
1250 3205
1250 3317
1250 4568
1250 4603
1250 4909
1251 1254
1251 1261
1251 1264
1251 1267
1251 1287
1251 1297
1251 1668
1251 2333
1252 1254
1252 1276
1252 1281
1252 1283
1252 1284
1252 1298
1252 2783
1252 2973
1252 3485
1252 3945
1252 4308
1252 4414
1252 4614
1253 1258
1253 1262
1253 1282
1253 1286
1253 1299
1253 2901
1253 3265
1253 3960
1253 4549
1254 1258
1254 1262
1254 1291
1254 1293
1254 1299
1254 1421
1254 3320
1254 4014
1255 1263
1255 1290
1255 2054
1255 2341
1255 2860
1255 4382
1256 1276
1256 1291
1256 1528
1256 2366
1256 2715
1256 4365
1256 4617
1257 1259
1257 1260
1257 1265
1257 1269
1257 1274
1257 1276
1257 1278
1257 1281
1257 1285
1257 1287
1257 2037
1257 2754
1257 2924
1257 3054
1257 4747
1258 1259
1258 1263
1258 1270
1258 1274
1258 1293
1258 1298
1258 3857
1259 1262
1259 1272
1259 1274
1259 1288
1259 1299
1259 4764
1260 1262
1260 1263
1260 1280
1260 3120
1260 3420
1261 3676
1261 4929
1262 1274
1262 1277
1262 1281
1262 1578
1262 1750
1262 1824
1262 3459
1262 4478
1263 1265
1263 1275
1263 1282
1263 1289
1263 1290
1263 1292
1263 1298
1263 2536
1263 3241
1263 3876
1263 4353
1264 1273
1264 1278
1264 1287
1264 1290
1264 1297
1264 1764
1264 2019
1264 3150
1265 1270
1265 1273
1265 1274
1265 1290
1265 1417
1265 1996
1265 2472
1266 1271
1266 1286
1266 1290
1266 1879
1266 1995
1266 2307
1266 3975
1266 4252
1267 1282
1267 1294
1267 2145
1267 2716
1267 3498
1267 4153
1267 4696
1268 1280
1268 1513
1268 1715
1268 2566
1268 3243
1268 3892
1268 4354
1268 4705
1269 1272
1269 1280
1269 1287
1269 1299
1269 1697
1269 2344
1269 2840
1269 2975
1270 1277
1270 1283
1270 1287
1270 1297
1270 2317
1270 3165
1270 3383
1270 3839
1270 4208
1270 4526
1271 1278
1271 1285
1271 2451
1271 2708
1271 3580
1272 1405
1272 1552
1272 2124
1272 2369
1272 2625
1272 2677
1272 3955
1273 1290
1273 1292
1273 1293
1273 1294
1273 1596
1273 1841
1273 2133
1273 3043
1273 3357
1273 3743
1273 4150
1273 4394
1273 4538
1274 1275
1274 1281
1274 1293
1274 1294
1274 1295
1274 3386
1274 3593
1275 1293
1275 3664
1275 4584
1275 4809
1275 4869
1276 1289
1276 1405
1276 1485
1276 2072
1276 3184
1276 4217
1276 4345
1276 4358
1276 4471
1276 4905
1277 1296
1277 1297
1277 1832
1277 3303
1277 3616
1278 1298
1278 2380
1278 4976
1279 1667
1279 2687
1279 3896
1280 1282
1280 1286
1280 1292
1280 1293
1280 1297
1280 3463
1281 1283
1281 1360
1281 1913
1281 2348
1281 3147
1281 3345
1281 3390
1281 4075
1281 4359
1282 1295
1282 1296
1282 1657
1282 1765
1282 3001
1282 3632
1282 3816
1282 4722
1283 1287
1283 1292
1283 2585
1283 2990
1283 3733
1283 3883
1283 4280
1283 4339
1284 2127
1285 3242
1286 1297
1286 1616
1286 2310
1286 3424
1286 4277
1287 1293
1287 1296
1287 1298
1287 1628
1287 3848
1288 1290
1288 2798
1288 4260
1288 4592
1289 1290
1289 1929
1289 3555
1289 4702
1290 1297
1290 2098
1290 3088
1290 3934
1290 4224
1291 2232
1291 4121
1292 1293
1292 1298
1292 2559
1292 2905
1292 3148
1292 4455
1292 4510
1292 4676
1292 4695
1293 1297
1293 1697
1293 2170
1293 2237
1293 3287
1293 4711
1294 2822
1294 3429
1294 3947
1294 4245
1295 1536
1295 2019
1295 2943
1295 2998
1295 3273
1295 3439
1296 1424
1296 2609
1297 1390
1297 2396
1297 2681
1297 3295
1298 1299
1298 3705
1299 1492
1299 2570
1299 2831
1299 2999
1299 3562
1300 1306
1300 1310
1300 1318
1300 1334
1300 1335
1300 1347
1300 1575
1300 1583
1300 2138
1300 4052
1300 4243
1300 4266
1301 1302
1301 1303
1301 1305
1301 1312
1301 1324
1301 1327
1301 1332
1301 1339
1301 1346
1301 3001
1301 3147
1301 3770
1301 4278
1302 1313
1302 2382
1302 4152
1302 4321
1303 1344
1303 1349
1303 2075
1303 2082
1303 3562
1304 1309
1304 1313
1304 1316
1304 1331
1304 1335
1304 1344
1304 1467
1305 1840
1305 2675
1305 3217
1305 3958
1305 3974
1305 3996
1306 1330
1306 1335
1306 1351
1306 1729
1306 1980
1306 3036
1306 3151
1306 3939
1306 4574
1307 1312
1307 1316
1307 1333
1307 1342
1307 1486
1307 1879
1307 1882
1307 2518
1307 3229
1307 3598
1307 4547
1308 1317
1308 1318
1308 1326
1308 1332
1308 1346
1308 1727
1308 2498
1308 2667
1308 2821
1308 3554
1308 4085
1309 1318
1309 1327
1309 1328
1309 1329
1309 1331
1309 1349
1309 4636
1309 4661
1310 1312
1310 1320
1310 2069
1310 2517
1310 2971
1311 1323
1311 1324
1311 1328
1311 2743
1311 3604
1311 4719
1312 1320
1312 1322
1312 1323
1312 1325
1312 1328
1312 2611
1312 3720
1312 3960
1312 4215
1312 4646
1313 1329
1313 1333
1313 1336
1313 1348
1313 1467
1313 2065
1313 2181
1314 1325
1314 2730
1315 1320
1315 1326
1315 1339
1315 1340
1315 1930
1315 2252
1315 3998
1315 4022
1316 1317
1316 1326
1316 1335
1316 1337
1316 1346
1316 2022
1316 3668
1316 3792
1317 1347
1317 1893
1317 2819
1317 4159
1318 1329
1318 1344
1318 3370
1318 3509
1318 3856
1318 4559
1319 1320
1319 1324
1319 1330
1319 1339
1319 1345
1319 1346
1319 1453
1319 3315
1320 1323
1320 1342
1320 1551
1320 4378
1320 4764
1321 1328
1321 1330
1321 1331
1321 1341
1321 1348
1321 1917
1321 3102
1321 4651
1322 1324
1322 1327
1322 1330
1322 1341
1322 1342
1322 1642
1322 1887
1322 2621
1322 3442
1322 4961
1322 4967
1323 1324
1323 1338
1323 1343
1323 3237
1323 4862
1323 4944
1324 1326
1324 1327
1324 1329
1324 1333
1324 1340
1324 1343
1324 1936
1324 2168
1324 4055
1325 1332
1325 1334
1325 1347
1325 1713
1325 1957
1325 2430
1325 3125
1325 4678
1326 1330
1326 1335
1326 1343
1326 1346
1326 1347
1326 2691
1326 4043
1326 4077
1326 4834
1327 1330
1327 1343
1327 1345
1327 1347
1327 1359
1327 3264
1327 4393
1328 1330
1328 1331
1328 1341
1328 1343
1328 2023
1328 2470
1329 1336
1329 1338
1329 1347
1329 3267
1329 3277
1329 3881
1329 4375
1329 4978
1330 1336
1330 1383
1330 2020
1330 3280
1330 3831
1331 1347
1331 1498
1331 2122
1331 2931
1331 3452
1331 4065
1332 1881
1332 2849
1332 4377
1333 1347
1333 4504
1334 1347
1334 1409
1334 2057
1334 2970
1334 3621
1334 3976
1334 4405
1334 4776
1334 4995
1335 1341
1335 1349
1336 1339
1336 1340
1336 1342
1336 1344
1336 1347
1336 1348
1336 1642
1336 1824
1336 1958
1336 4601
1336 4667
1336 4825
1337 2522
1337 4477
1337 4972
1338 2379
1338 3220
1338 4205
1338 4348
1338 4601
1338 4883
1339 1344
1339 1348
1339 2096
1340 1345
1340 1347
1340 1378
1340 1851
1340 4289
1341 1872
1341 3591
1341 4585
1341 4622
1341 4987
1342 1346
1342 2761
1342 3050
1342 3984
1343 1922
1343 3685
1343 3703
1343 4173
1344 1725
1344 2070
1344 3122
1344 3913
1344 4273
1345 1815
1345 2593
1345 2744
1345 4025
1345 4171
1345 4510
1345 4706
1345 4982
1346 1347
1346 1348
1346 1385
1346 2781
1346 4966
1347 4168
1347 4695
1348 2109
1348 2435
1348 2629
1348 4306
1349 2306
1349 2541
1349 2550
1349 4478
1350 1371
1350 1382
1350 1389
1350 1391
1350 1397
1350 2616
1350 4395
1351 1371
1351 1373
1351 1385
1351 1795
1351 1950
1351 2717
1351 2785
1351 3906
1352 1359
1352 1369
1352 1385
1352 1396
1352 1397
1352 1750
1352 1769
1353 1394
1353 1396
1353 1704
1353 3296
1353 4045
1353 4780
1354 1360
1354 1370
1354 1375
1354 1388
1354 1518
1354 2965
1354 3209
1354 3230
1354 3452
1354 4292
1355 1361
1355 1385
1355 1396
1355 3426
1355 3673
1355 4118
1355 4192
1356 1358
1356 1364
1356 1398
1356 1963
1356 2334
1356 3088
1356 4054
1356 4316
1356 4755
1357 1362
1357 1365
1357 1380
1357 1389
1357 1395
1357 1399
1357 1448
1357 2410
1357 2779
1357 3457
1358 1372
1358 1384
1358 1464
1358 1974
1358 4379
1359 1362
1359 1367
1359 1369
1359 1375
1359 1376
1359 1379
1359 1384
1359 1418
1359 1761
1359 2618
1359 4110
1359 4546
1359 4580
1360 1364
1360 1378
1360 1379
1360 1399
1360 3005
1360 3407
1360 4581
1361 1362
1361 1372
1361 1390
1361 2170
1361 2231
1361 2695
1361 2935
1361 3231
1361 4147
1362 1363
1362 1367
1362 1377
1362 1382
1362 1392
1362 3942
1362 4570
1363 1370
1363 1375
1363 2263
1363 3341
1364 1368
1364 1377
1364 1381
1364 1389
1364 1431
1364 2590
1364 2865
1365 1367
1365 1370
1365 1379
1365 1390
1365 2963
1365 3412
1365 3721
1366 1368
1366 1369
1366 1374
1366 1376
1366 1391
1366 1394
1366 1398
1366 1928
1366 2220
1366 4084
1366 4875
1367 1375
1367 1377
1367 1381
1367 1395
1367 1399
1367 2269
1367 2923
1368 1371
1368 1382
1368 2201
1368 2342
1368 3533
1368 4438
1369 1387
1369 1389
1369 1399
1369 3297
1369 4070
1370 1375
1370 1376
1370 1711
1370 4002
1371 1383
1371 1397
1371 1918
1371 3382
1371 4474
1372 1381
1372 1390
1372 1637
1372 1917
1372 3138
1372 3481
1372 4095
1373 1497
1374 1383
1374 1396
1374 4011
1374 4393
1375 1392
1375 2307
1375 2318
1375 4535
1375 4782
1376 1395
1376 1399
1376 1560
1376 2666
1376 2928
1376 3212
1376 4180
1376 4491
1377 1379
1377 2791
1377 4552
1378 1387
1378 1527
1378 1904
1378 3260
1378 4256
1378 4897
1379 1380
1379 1384
1379 1385
1379 1397
1379 2029
1379 3972
1380 1381
1380 1389
1380 1392
1380 1396
1380 1744
1380 2051
1380 3575
1380 3813
1380 4373
1381 1391
1381 1398
1381 1809
1381 2728
1381 4799
1382 1384
1382 1392
1382 2063
1382 2765
1383 1392
1383 1398
1383 2162
1383 2215
1383 4449
1384 1393
1384 1399
1384 1966
1384 3337
1384 3872
1384 4594
1384 4714
1385 1387
1385 2209
1385 2769
1385 2839
1385 3234
1385 3278
1385 3701
1385 4022
1385 4995
1386 2277
1386 2373
1386 2928
1387 1392
1387 2891
1387 4039
1387 4767
1388 2183
1388 2692
1388 3084
1388 3892
1388 4024
1388 4958
1389 1392
1389 1393
1389 1396
1389 2370
1389 3350
1389 3939
1389 4410
1390 1392
1390 1559
1390 1990
1390 2026
1390 2368
1391 1394
1391 4459
1391 4538
1392 2074
1392 2833
1392 3121
1393 1395
1393 1398
1393 1963
1393 4953
1394 2452
1394 2652
1394 3417
1395 1397
1395 1838
1395 2198
1395 2475
1395 3532
1395 4877
1396 1399
1396 1989
1396 2129
1397 2246
1397 2702
1397 2752
1397 2796
1397 3127
1397 3183
1397 3681
1397 4584
1397 4966
1398 4755
1399 3264
1399 4512
1400 1401
1400 1402
1400 1407
1400 1418
1400 1419
1400 1446
1400 1699
1400 4851
1401 1406
1401 1411
1401 1414
1401 1420
1401 1428
1401 1448
1401 3531
1402 1405
1402 1408
1402 1409
1402 1419
1402 1423
1402 1424
1402 1435
1402 4516
1402 4602
1403 1416
1403 1421
1403 1424
1403 1438
1403 1442
1403 1869
1403 1879
1403 2394
1403 2758
1403 4066
1403 4273
1404 1427
1404 1441
1404 1443
1405 1412
1405 1422
1405 1426
1405 1436
1405 1646
1405 3551
1405 3853
1405 4413
1405 4715
1406 1407
1406 1415
1406 1416
1406 1419
1406 1422
1406 1428
1406 1433
1406 1439
1406 1441
1406 1445
1406 3005
1406 3570
1406 3691
1407 1423
1407 1428
1407 1431
1407 1608
1407 1844
1407 1893
1407 3445
1407 4914
1408 1410
1408 1430
1408 1432
1408 1446
1408 3378
1409 1410
1409 1420
1409 1421
1409 1443
1409 1448
1409 3207
1409 4360
1409 4564
1410 1417
1410 1434
1410 1729
1410 3751
1410 4015
1410 4644
1411 1448
1411 3357
1411 3966
1412 1414
1412 1425
1412 1426
1412 1427
1412 1430
1412 1440
1412 1444
1412 1822
1412 2060
1412 3771
1412 4715
1412 4881
1413 1433
1413 1436
1413 1708
1413 2249
1413 2987
1413 3128
1413 3870
1414 1431
1414 1435
1414 1440
1414 1441
1414 1447
1414 2327
1414 2858
1415 1429
1415 1446
1415 1449
1415 1458
1415 3191
1415 3761
1416 1422
1416 1423
1416 1432
1416 1434
1416 1444
1416 2120
1416 2267
1416 2392
1416 3379
1417 1448
1417 1449
1417 1522
1417 2871
1417 3103
1417 3636
1417 4574
1418 1424
1418 1435
1418 3573
1418 4843
1419 1428
1419 1429
1419 1433
1419 1437
1419 1440
1419 1441
1419 4169
1419 4873
1420 1423
1420 1430
1420 1437
1420 1443
1420 2112
1420 2129
1420 2518
1420 2827
1420 3264
1420 3628
1420 4896
1421 1422
1421 1423
1421 1425
1421 1448
1421 2862
1421 3636
1422 1449
1422 1451
1422 2832
1422 3977
1422 4107
1422 4423
1423 1427
1423 1439
1423 1441
1423 1443
1424 1441
1424 1443
1424 1446
1424 2361
1424 2475
1424 3344
1424 4428
1425 1429
1425 1441
1425 1442
1425 3507
1426 1443
1426 1444
1426 2182
1426 2546
1426 2823
1426 3505
1427 1428
1427 1530
1427 2509
1427 3376
1427 3590
1428 1430
1428 1433
1428 1435
1428 1723
1428 3328
1428 4281
1429 1432
1429 1447
1429 1686
1429 1695
1429 2653
1429 3120
1429 3146
1429 3278
1430 1439
1430 1533
1430 1716
1430 3533
1430 3745
1431 2588
1432 1434
1432 1447
1432 2053
1432 3416
1432 3448
1432 3999
1432 4073
1433 1444
1433 1664
1433 1894
1433 3713
1433 3908
1434 1438
1434 1440
1434 1443
1434 1448
1434 2439
1434 2680
1434 3982
1435 1438
1435 1439
1435 1449
1435 1488
1435 2473
1435 2670
1435 3591
1435 4725
1436 1735
1436 2116
1436 3564
1437 1443
1437 1445
1437 1925
1437 4596
1438 1447
1438 1940
1438 2062
1438 2964
1438 3106
1438 3390
1438 3463
1438 4462
1438 4656
1439 1441
1439 1444
1439 1449
1439 2522
1439 2652
1439 4033
1439 4105
1439 4759
1440 1441
1440 1444
1440 1723
1441 1448
1442 1449
1442 1779
1442 3674
1442 3747
1442 3922
1442 4644
1443 1444
1443 1445
1443 2328
1443 2876
1443 4177
1443 4266
1444 2820
1444 2984
1444 3490
1445 3128
1445 3415
1446 1628
1446 2134
1446 3581
1446 4035
1446 4899
1447 2247
1447 2929
1447 3677
1448 1470
1448 2952
1448 3481
1449 2239
1449 2661
1450 1452
1450 1454
1450 1458
1450 1477
1450 1483
1450 1492
1450 1493
1450 1637
1450 2773
1450 4231
1451 1466
1451 1473
1451 1480
1451 1481
1451 1485
1451 1492
1451 1664
1451 1928
1451 3360
1451 3434
1452 1466
1452 1470
1452 1476
1452 1477
1452 1481
1452 1487
1452 1524
1452 1878
1452 1903
1452 2857
1452 3355
1452 4011
1452 4013
1453 1472
1453 1483
1453 1485
1453 1491
1453 1494
1453 2700
1454 1459
1454 1465
1454 1476
1454 1479
1454 2328
1454 2876
1454 3131
1455 1463
1455 1478
1455 1497
1455 1540
1455 1582
1455 2754
1455 3173
1455 3197
1455 4244
1455 4273
1455 4353
1456 1464
1456 1465
1456 1470
1456 1671
1456 2942
1456 3218
1456 3696
1456 4563
1456 4614
1457 1494
1457 1499
1457 2669
1457 3065
1457 3289
1458 1460
1458 1468
1458 1474
1458 1483
1458 1489
1458 1491
1458 3175
1458 3643
1458 4723
1459 1462
1459 1476
1459 1495
1459 1496
1459 1747
1459 1789
1459 4835
1460 1466
1460 1475
1460 1482
1460 1493
1460 1495
1460 4698
1461 1472
1461 1489
1461 1492
1461 1499
1461 1599
1461 2235
1461 2517
1461 3428
1461 3985
1461 4229
1462 1480
1462 1484
1462 1490
1462 2013
1462 4669
1463 1499
1463 1930
1463 1950
1463 3395
1463 3679
1463 4081
1463 4130
1464 1471
1464 1482
1464 1484
1464 3694
1464 4482
1465 2644
1465 3128
1465 3846
1465 4855
1466 1483
1466 1488
1466 1549
1466 2013
1466 3403
1466 3691
1466 4166
1467 1474
1467 1489
1467 1495
1467 1497
1467 1498
1467 2397
1467 3426
1467 3659
1467 3878
1467 4135
1467 4502
1468 2058
1468 2576
1468 2743
1468 4988
1469 1470
1469 1486
1469 1496
1469 1499
1469 3279
1469 3496
1470 1474
1470 1478
1470 1485
1470 1600
1470 4095
1470 4382
1470 4668
1470 4718
1471 1477
1471 1478
1471 2559
1471 3379
1471 3434
1471 3844
1471 4405
1472 1480
1472 1483
1472 1494
1472 3146
1472 4197
1473 1480
1473 1489
1473 1491
1473 1639
1473 3417
1473 3586
1473 4324
1474 1496
1474 1498
1474 2293
1474 2638
1474 2932
1474 3608
1474 4979
1475 1479
1475 1482
1475 1489
1475 2377
1475 2825
1475 3777
1475 3922
1476 1480
1476 1490
1476 1492
1476 1494
1476 1596
1477 1484
1477 1491
1477 2700
1478 2356
1478 4568
1479 1497
1479 2859
1479 3632
1479 3719
1480 1490
1480 1494
1480 1957
1480 2423
1480 2433
1480 2623
1480 2898
1480 3092
1480 3625
1480 3792
1481 3030
1481 3841
1482 1491
1482 1707
1482 3961
1482 4168
1483 1484
1483 1494
1483 2432
1483 3196
1483 4301
1483 4737
1484 1940
1484 3160
1484 3958
1485 1495
1485 1499
1485 2154
1485 3020
1485 4287
1486 1488
1486 2334
1486 2412
1486 4761
1487 1490
1487 1497
1487 2161
1487 2762
1487 4018
1487 4085
1487 4770
1487 4793
1487 4869
1488 1768
1488 2820
1489 1499
1489 2209
1489 2456
1489 4110
1490 1509
1490 2231
1490 3142
1490 4325
1490 4530
1490 4605
1491 1496
1491 1498
1491 1660
1491 2153
1491 2358
1491 2541
1491 2804
1491 3003
1491 4775
1492 2415
1492 3562
1492 4830
1492 4845
1493 1889
1493 2894
1494 1498
1494 2781
1494 3714
1494 4112
1494 4302
1495 1895
1495 1994
1495 2509
1495 2701
1495 4719
1496 1621
1496 2701
1496 2753
1498 2282
1498 3023
1498 3102
1498 3694
1498 3952
1499 1587
1499 2232
1499 2445
1499 3476
1500 1507
1500 1508
1500 1527
1500 1534
1500 2134
1500 2267
1500 3159
1500 3212
1500 4011
1500 4937
1501 1514
1501 1519
1501 1523
1501 1527
1501 1546
1501 2465
1501 3320
1501 4650
1501 4712
1502 1505
1502 1517
1502 1520
1502 1522
1502 1525
1502 1529
1502 1547
1502 1586
1502 2589
1502 4446
1503 1515
1503 1540
1503 1546
1503 1548
1503 3625
1504 1536
1504 1537
1504 1540
1504 1931
1504 2310
1505 1517
1505 1519
1505 2331
1505 3550
1505 4038
1506 1507
1506 1523
1506 1538
1506 1544
1506 1547
1506 1548
1506 1549
1506 4915
1507 1510
1507 1521
1507 1531
1507 1537
1507 1544
1507 2523
1507 4656
1508 1518
1508 1525
1508 1529
1508 1530
1508 1531
1508 1535
1508 1538
1508 1539
1508 1546
1508 2156
1508 3261
1508 3777
1508 4755
1508 4853
1509 1512
1509 1518
1509 1527
1509 1531
1509 2924
1509 3537
1510 1522
1510 1528
1510 1545
1510 1833
1510 2341
1510 2397
1510 3775
1510 3840
1510 4482
1510 4566
1511 1513
1511 1519
1511 1523
1511 1540
1511 1545
1511 1547
1511 3362
1511 4266
1512 1528
1512 1541
1512 1542
1512 1548
1512 2011
1512 3878
1513 1515
1513 1516
1513 1518
1513 1530
1513 1535
1513 1537
1513 1540
1513 1541
1513 2415
1513 3782
1513 4342
1513 4506
1513 4756
1514 1516
1514 1525
1514 1531
1514 1534
1514 1536
1514 1547
1514 1796
1514 2168
1514 2614
1514 2681
1514 2983
1514 3286
1515 1516
1515 1529
1515 1534
1515 1536
1515 1544
1515 1548
1515 2028
1515 2082
1515 2266
1515 2701
1515 4488
1516 1522
1516 1526
1516 1545
1516 1782
1516 2288
1517 1533
1517 1539
1517 1541
1517 1546
1517 1764
1517 3201
1517 4437
1518 1531
1518 1533
1518 1546
1518 1547
1518 4085
1519 1525
1519 1531
1520 1528
1520 1533
1520 1542
1520 1545
1520 2668
1520 3704
1520 3824
1520 4705
1521 1523
1521 1534
1521 1549
1521 1981
1521 2602
1521 3064
1522 1535
1522 2583
1522 2947
1522 3219
1523 1535
1523 2158
1523 2529
1523 4311
1523 4772
1524 1533
1524 1540
1524 1673
1524 3277
1524 3313
1525 1537
1525 1543
1525 3037
1525 3560
1525 3825
1525 4115
1525 4161
1525 4979
1526 1538
1526 2864
1526 3020
1526 3181
1526 3331
1527 1528
1527 1544
1527 1545
1527 1547
1527 4389
1527 4866
1528 1530
1528 1535
1528 2458
1528 2465
1528 3096
1528 4316
1529 1540
1529 1541
1529 2730
1529 3208
1529 3469
1529 4640
1529 4966
1530 1535
1530 1541
1530 1543
1530 2102
1531 1532
1531 1542
1531 1546
1531 2401
1531 3040
1531 3275
1531 3548
1532 1536
1532 1543
1532 2046
1532 2425
1532 2525
1532 3535
1532 3866
1532 4373
1532 4596
1533 1534
1533 1541
1533 1544
1533 1547
1533 1549
1533 2034
1533 2107
1533 3993
1533 4802
1534 2374
1534 2922
1534 3011
1534 3408
1534 4374
1535 1543
1535 1637
1535 2848
1535 3028
1535 3274
1535 3895
1535 4371
1535 4828
1536 1538
1536 1541
1536 1542
1536 2111
1536 2238
1536 2267
1536 2878
1536 3216
1536 3777
1537 1547
1537 3045
1538 1683
1538 1845
1538 3674
1540 1543
1540 4970
1541 1543
1541 1680
1541 1761
1541 3200
1541 3799
1541 4003
1541 4247
1542 1544
1542 1548
1542 1549
1542 1715
1542 1909
1542 1990
1542 2633
1542 2715
1542 3312
1542 3893
1542 4504
1543 3053
1543 4751
1544 1705
1544 2316
1544 4119
1544 4704
1545 1549
1545 1844
1545 2070
1545 2952
1545 3908
1545 4496
1546 2227
1546 4069
1547 1549
1547 3567
1547 4131
1547 4175
1547 4333
1548 2125
1548 2983
1548 4011
1548 4864
1549 2242
1549 3572
1549 4227
1550 1552
1550 1571
1550 1572
1550 1573
1550 1578
1550 1580
1550 3032
1551 1570
1551 1571
1551 1573
1551 1578
1551 1594
1551 1597
1551 2062
1551 3150
1551 3915
1551 4204
1552 1556
1552 1567
1552 1572
1552 1582
1552 2163
1552 2487
1552 3565
1553 1559
1553 1562
1553 1566
1553 2609
1553 4387
1554 1556
1554 1557
1554 1558
1554 1567
1554 1568
1554 1584
1554 1594
1554 1599
1554 1891
1554 2724
1554 3149
1554 3233
1555 1569
1555 1571
1555 1582
1555 3492
1555 3837
1555 4136
1555 4356
1556 1557
1556 1559
1556 1567
1556 1591
1556 1593
1556 1678
1556 2813
1556 3314
1556 3703
1556 4666
1556 4705
1557 1563
1557 1566
1557 1569
1557 1571
1557 1592
1557 2457
1557 2933
1557 2941
1557 4134
1558 1563
1558 1576
1558 1593
1558 1595
1558 1598
1558 1780
1558 3486
1558 4343
1558 4598
1559 1576
1559 1583
1559 1596
1559 2209
1559 2341
1559 2459
1559 2785
1559 3340
1559 3907
1559 4202
1560 1573
1560 1588
1560 1901
1560 3080
1560 3182
1560 3864
1561 1571
1561 1582
1561 1599
1561 3968
1561 4385
1561 4691
1562 1585
1562 2511
1562 2587
1562 2745
1563 1567
1563 1582
1563 2271
1563 2682
1563 3272
1563 4934
1563 4962
1564 1593
1564 1598
1564 2266
1564 3707
1565 1567
1565 1570
1565 1576
1565 1581
1566 1575
1566 1588
1566 1590
1566 1599
1566 2120
1566 4628
1567 1592
1567 1594
1568 1570
1568 1574
1568 1579
1568 1588
1568 4952
1568 4955
1569 1574
1569 1595
1569 3612
1569 3675
1569 4286
1569 4673
1570 1576
1570 1577
1570 1712
1570 2809
1570 3015
1570 3867
1571 1664
1571 2816
1571 4927
1571 4955
1572 1584
1572 1588
1572 1589
1572 1598
1572 3024
1572 3403
1572 3634
1572 4045
1572 4567
1572 4654
1573 1579
1573 1584
1573 2002
1573 2874
1574 1576
1574 1583
1574 1878
1574 1897
1574 2278
1574 2662
1574 2746
1574 2834
1574 2958
1574 4088
1574 4216
1574 4435
1575 1673
1575 2183
1575 2548
1575 3107
1575 4959
1576 1577
1576 1586
1576 1590
1576 1592
1576 2062
1576 2075
1576 2720
1576 3997
1576 4187
1577 1590
1577 1591
1577 1993
1577 3169
1577 3766
1577 3927
1577 4283
1577 4347
1578 2006
1578 3040
1578 3496
1578 4962
1579 1594
1579 2230
1579 2274
1579 3445
1579 3490
1579 3609
1579 4029
1580 1585
1580 1587
1580 1590
1580 1593
1580 1597
1580 2345
1580 2839
1580 4693
1581 1589
1581 1590
1581 2448
1581 4987
1582 1584
1582 1585
1582 1589
1582 1875
1582 4734
1583 2768
1583 4232
1584 1587
1584 1589
1584 1590
1584 1977
1584 2987
1584 4757
1585 1591
1585 1593
1585 1669
1585 2206
1585 2554
1585 2828
1585 4079
1585 4875
1585 4994
1586 1940
1586 2109
1586 2312
1586 3929
1586 4417
1587 1588
1587 1593
1587 1599
1587 1730
1587 2017
1587 3360
1587 4849
1588 1593
1588 1595
1588 1790
1588 2173
1588 3615
1589 1590
1589 2598
1589 3669
1590 1594
1590 1598
1590 2034
1590 2503
1590 3119
1590 3282
1590 3835
1591 2362
1591 2460
1591 3776
1591 4143
1592 3460
1592 3537
1592 3801
1592 4153
1592 4431
1593 2986
1593 3246
1594 1595
1594 1597
1594 2675
1595 1746
1595 2688
1595 4789
1596 2309
1596 4180
1596 4520
1597 1599
1597 4034
1598 1599
1598 1613
1598 1832
1598 3605
1598 4486
1599 2177
1599 2319
1599 2323
1599 2520
1600 1609
1600 1643
1600 1944
1600 1951
1600 2975
1600 3306
1600 3755
1600 4324
1601 1618
1601 1632
1601 1713
1601 2288
1602 1606
1602 1617
1602 1623
1602 1628
1602 2117
1602 2521
1602 3652
1603 1611
1603 1626
1603 1633
1603 4192
1603 4426
1604 1612
1604 1626
1604 1849
1604 2089
1604 2469
1604 2518
1604 2927
1604 4843
1605 1606
1605 1617
1605 1624
1605 1631
1605 1632
1605 1635
1605 1637
1605 1645
1605 2717
1606 1614
1606 1621
1606 1624
1606 1625
1606 3703
1607 1626
1607 1638
1607 2425
1607 3477
1607 3585
1607 3996
1607 4594
1607 4825
1608 1617
1608 1641
1608 1645
1608 3329
1608 3781
1608 3926
1609 1610
1609 1620
1609 1623
1609 1626
1609 1642
1609 1645
1610 1616
1610 1627
1610 1637
1610 1960
1610 2487
1611 1616
1611 1647
1611 1712
1611 2376
1611 3105
1611 4894
1612 1623
1612 1625
1612 1627
1612 3353
1613 1624
1613 1639
1613 1646
1613 2577
1613 3013
1613 3085
1613 3637
1613 4277
1614 1618
1614 1621
1614 1624
1614 1642
1614 2410
1614 2799
1614 4007
1614 4121
1614 4279
1615 1629
1615 1649
1615 3117
1615 3463
1615 3931
1615 4903
1616 1619
1616 1625
1616 3779
1617 1624
1617 1625
1617 1634
1617 2951
1617 3005
1617 3813
1618 1620
1618 1626
1618 1630
1618 1635
1618 4300
1618 4401
1618 4528
1618 4931
1619 1641
1619 2206
1619 2665
1619 2820
1619 4160
1619 4934
1620 1621
1620 1627
1620 1633
1620 1638
1620 1639
1620 2367
1620 2872
1620 3293
1620 3779
1620 4950
1621 1629
1621 1638
1621 1784
1621 2223
1621 3533
1621 3801
1622 1624
1622 1629
1622 1635
1622 1643
1622 1646
1622 2932
1623 1626
1623 1635
1623 1638
1623 4854
1624 1630
1624 1632
1624 1646
1624 3811
1624 4221
1625 1638
1625 1645
1626 1634
1626 1641
1626 1646
1626 1796
1626 2980
1626 3082
1626 3439
1626 3531
1626 3944
1626 4065
1627 1649
1628 1649
1628 2435
1628 4007
1628 4156
1628 4242
1628 4258
1629 1637
1629 1646
1629 1652
1629 1857
1629 3859
1629 4732
1629 4822
1630 1637
1630 2232
1630 2281
1631 1730
1631 2098
1631 2229
1631 3397
1632 1633
1632 1634
1632 1641
1632 1643
1632 2244
1632 2424
1632 2740
1633 4914
1634 1744
1634 2171
1634 3022
1634 3039
1635 1636
1635 1642
1635 2531
1635 4630
1636 4511
1636 4847
1637 1642
1637 1648
1637 2241
1637 3058
1637 3350
1637 3590
1637 4169
1638 1649
1638 2883
1638 3649
1639 1966
1639 1980
1639 3067
1639 3817
1639 3904
1639 4553
1640 3503
1640 4236
1641 2945
1641 4644
1642 1880
1642 1999
1642 2871
1643 1647
1643 1649
1643 2548
1643 2843
1643 3075
1643 3332
1643 3605
1643 3653
1643 4818
1643 4895
1644 1860
1644 2011
1644 2845
1644 3611
1644 3747
1644 4108
1645 1649
1646 3483
1646 3775
1646 4370
1646 4550
1646 4569
1647 2991
1647 3545
1647 3952
1647 3971
1647 4037
1647 4824
1648 1855
1648 3251
1648 4966
1649 2850
1649 3750
1649 4737
1650 1654
1650 1655
1650 1672
1650 1696
1650 2323
1650 2550
1650 3834
1650 4555
1651 1660
1651 1664
1651 1667
1651 1671
1651 1676
1651 1684
1651 1686
1651 2092
1651 3497
1652 1658
1652 1659
1652 1665
1652 1668
1652 1671
1652 2655
1652 2827
1652 3239
1652 4443
1653 1664
1653 1685
1653 1699
1653 2926
1653 4795
1654 1663
1654 1671
1654 1693
1654 1694
1654 3014
1654 3963
1654 4124
1655 1672
1655 1673
1655 1685
1655 1690
1655 1695
1655 2302
1655 2715
1655 3491
1655 3500
1656 1676
1656 2406
1656 2817
1656 2964
1656 3342
1656 3631
1656 3681
1657 1668
1657 1678
1657 1682
1657 1684
1657 1694
1657 1972
1658 2298
1659 1663
1659 1676
1659 1678
1659 1684
1659 1696
1659 1754
1659 2376
1659 2855
1659 3445
1659 4277
1659 4315
1659 4908
1660 1663
1660 1685
1660 1688
1660 1698
1660 2175
1660 3567
1660 4639
1661 1681
1661 1687
1661 1694
1661 2342
1661 3471
1661 4770
1662 1689
1662 1691
1662 1693
1662 1697
1662 2165
1663 1683
1663 1685
1663 1693
1663 1838
1663 4074
1663 4930
1664 1667
1664 1670
1664 1691
1664 1697
1664 1698
1664 2105
1664 2618
1664 3110
1664 4250
1664 4625
1665 1681
1665 1684
1665 3161
1665 3628
1666 1668
1666 1673
1666 3080
1666 3589
1667 1683
1667 1694
1667 1696
1667 2602
1667 3408
1667 3670
1667 3772
1667 4172
1667 4413
1667 4554
1667 4866
1668 1692
1668 1698
1668 2726
1668 3254
1668 3622
1668 4398
1669 1688
1669 1691
1669 1699
1669 2562
1669 4193
1669 4465
1669 4487
1670 1877
1670 2137
1670 2313
1670 2416
1670 2846
1670 3394
1670 3881
1670 4657
1671 1676
1671 1699
1671 1740
1671 2077
1671 2217
1671 2456
1671 3580
1671 4290
1672 1679
1672 1692
1672 1750
1672 2089
1672 2554
1672 2729
1673 1675
1673 2134
1673 2419
1673 3605
1674 1680
1674 1695
1674 1899
1674 4657
1675 1691
1675 2035
1675 2774
1675 3740
1675 4959
1676 1690
1676 1695
1676 3629
1677 1686
1677 1695
1677 2032
1677 3866
1677 4638
1678 1679
1678 1692
1678 1915
1678 1946
1678 2424
1678 2742
1679 3106
1679 3991
1679 4524
1680 1689
1681 1683
1681 3411
1681 4579
1682 1690
1682 2148
1682 4151
1683 1685
1683 1865
1683 2533
1683 4186
1683 4250
1684 1687
1684 1705
1684 2831
1684 4247
1684 4805
1684 4847
1685 2223
1685 3133
1685 3217
1685 4599
1686 1688
1686 1689
1686 2385
1686 2654
1686 3809
1686 3810
1686 3884
1686 4523
1686 4844
1687 1700
1687 2484
1687 2533
1688 1697
1688 2264
1688 2451
1688 2467
1689 3539
1689 3987
1689 4832
1689 4887
1690 1693
1690 3983
1690 4479
1691 2418
1691 2632
1691 2691
1691 4204
1692 1693
1692 1936
1692 3899
1692 3942
1693 1695
1693 3182
1693 3780
1693 4175
1693 4767
1693 4815
1694 1695
1694 3309
1694 4875
1695 2943
1695 3185
1695 4288
1695 4842
1696 1698
1696 2189
1696 2406
1697 1699
1697 2964
1697 3377
1697 3395
1697 3631
1698 4104
1698 4568
1698 4776
1699 2123
1699 2620
1699 3586
1699 3957
1700 1712
1700 1713
1700 1714
1700 1715
1700 1717
1700 1740
1700 1744
1700 2658
1700 3759
1701 1711
1701 1713
1701 1714
1701 1716
1701 1720
1701 1738
1701 1966
1702 1715
1702 1720
1702 1722
1702 1931
1702 2263
1702 4002
1702 4843
1703 1705
1703 1717
1703 1725
1703 1728
1703 1746
1703 3579
1704 1713
1704 1724
1704 1729
1704 1739
1704 1745
1704 1746
1704 2350
1704 3631
1704 4982
1705 1707
1705 1721
1705 1732
1705 1737
1705 1743
1705 1745
1706 1710
1706 1722
1706 3031
1706 4342
1707 1719
1707 1745
1707 4223
1708 1723
1708 1729
1708 1738
1708 1742
1708 2747
1708 4752
1708 4832
1708 4931
1709 1728
1709 3192
1709 3413
1709 4901
1710 1736
1710 1738
1710 1739
1710 2216
1710 3079
1710 3525
1710 4540
1711 1723
1711 1725
1711 1728
1711 1965
1711 2186
1711 3422
1712 1727
1712 2165
1712 3152
1712 4222
1713 1715
1713 1719
1713 1720
1713 1732
1713 1859
1713 2032
1713 2046
1713 2222
1713 2905
1713 3782
1713 4038
1713 4147
1714 1729
1714 1731
1714 1734
1714 1735
1714 1741
1714 1748
1714 1761
1714 2069
1714 3446
1714 4089
1715 1716
1715 1718
1715 1722
1715 1745
1715 2406
1715 3155
1716 1724
1716 2357
1716 3488
1717 1726
1717 1730
1717 1732
1717 1747
1717 2684
1717 3037
1717 3286
1717 4397
1717 4704
1718 1724
1718 1739
1718 1741
1718 3411
1718 4311
1718 4929
1718 4937
1719 1732
1719 1734
1719 2836
1719 4699
1720 1737
1720 2171
1721 1725
1721 1728
1721 1734
1721 1738
1721 1799
1721 2544
1721 2588
1721 2746
1721 2805
1722 1725
1722 1728
1722 1734
1722 1789
1722 2808
1722 3096
1722 3177
1722 3465
1722 3541
1722 3653
1722 4219
1723 1744
1723 2458
1723 2770
1723 3912
1723 4266
1724 1730
1724 1740
1724 1747
1724 2896
1724 3145
1724 3214
1725 1738
1725 1740
1725 1743
1725 1746
1725 1747
1725 3134
1725 3376
1726 1744
1726 1745
1726 1748
1726 2665
1726 3340
1726 4860
1727 1734
1727 1738
1727 3676
1727 4343
1728 1742
1728 1743
1729 1744
1729 1746
1729 2860
1729 2933
1729 3813
1729 4439
1730 1735
1730 1745
1730 1747
1730 3289
1730 4617
1731 1736
1731 1738
1731 1743
1731 1747
1731 2696
1731 4666
1732 1739
1732 1749
1732 2325
1732 3045
1732 4656
1733 1737
1733 1749
1733 2393
1733 2789
1733 3347
1733 4576
1734 1740
1734 3390
1734 4350
1734 4725
1735 1818
1735 2007
1735 4747
1735 4891
1736 2015
1736 2505
1737 1741
1737 2121
1737 2235
1737 3777
1737 4439
1737 4530
1738 1740
1738 1754
1738 2052
1738 2299
1738 3095
1738 3649
1738 4566
1739 1780
1739 2385
1739 2467
1739 4396
1739 4517
1739 4659
1740 1744
1740 2258
1740 2332
1740 2547
1740 3066
1741 1745
1741 1746
1742 2304
1742 2532
1742 3263
1742 3279
1742 3311
1742 3925
1742 4022
1742 4045
1743 1748
1743 1871
1743 3681
1744 2099
1744 3356
1744 3390
1744 4924
1745 3884
1745 4719
1746 1748
1746 3288
1746 3825
1746 4937
1747 1748
1747 1749
1747 2790
1747 4069
1747 4804
1747 4834
1748 2641
1748 2827
1748 3271
1748 4990
1749 1812
1749 3162
1750 1789
1750 3177
1750 4177
1750 4790
1751 1760
1751 1764
1751 1768
1751 1772
1751 1777
1751 1791
1751 1792
1751 1796
1751 2061
1751 2683
1751 2754
1751 4309
1751 4446
1752 1760
1752 1763
1752 1765
1752 1780
1752 1781
1752 1792
1752 1883
1752 2160
1752 3161
1752 3170
1753 1754
1753 1771
1753 1774
1753 1779
1753 1786
1753 1790
1753 2290
1753 4075
1754 1760
1754 1777
1754 1784
1754 4650
1754 4861
1755 1762
1755 1766
1755 1768
1755 1776
1755 1788
1755 1796
1755 1954
1755 2447
1755 2764
1755 3211
1756 1765
1756 1769
1756 1783
1756 4085
1757 1764
1757 1765
1757 1781
1757 1792
1757 4271
1758 1763
1758 1769
1758 2109
1758 4086
1758 4376
1758 4447
1759 1787
1759 1798
1759 1799
1759 3007
1759 3071
1759 4586
1760 1764
1760 1769
1760 1772
1760 1798
1760 2309
1760 2474
1760 4326
1760 4451
1761 1775
1761 1793
1761 3492
1762 1774
1762 3212
1763 1775
1763 1781
1763 1786
1763 1798
1763 4647
1764 1765
1764 1778
1764 1787
1764 1792
1764 1798
1764 4283
1764 4631
1764 4860
1765 1773
1765 1775
1765 1792
1765 3233
1765 4049
1765 4255
1765 4497
1766 1787
1766 1789
1766 1793
1766 1794
1766 1910
1766 2900
1766 3169
1767 1768
1767 1782
1767 1789
1767 1792
1767 1793
1767 1794
1767 1797
1767 1976
1767 2662
1767 2664
1767 3619
1767 4165
1768 1769
1768 1770
1768 1771
1768 1774
1768 1778
1768 1782
1768 2986
1768 4490
1768 4523
1769 1770
1769 1771
1769 1773
1769 1782
1769 1783
1769 1797
1769 3478
1769 3573
1769 4006
1770 1786
1770 2050
1770 3019
1771 1786
1771 1872
1771 2803
1771 2990
1771 3920
1772 1797
1772 1922
1772 2430
1772 4245
1773 2502
1774 1775
1774 1780
1774 1783
1774 1787
1774 1795
1774 1797
1774 3417
1775 1779
1775 1786
1775 2828
1775 3179
1775 3280
1776 1782
1776 1790
1776 1799
1776 2947
1776 3154
1776 4856
1777 1794
1777 1796
1777 1798
1777 2195
1777 3367
1777 4743
1777 4979
1778 1790
1778 2811
1778 4750
1779 1781
1779 1792
1779 4191
1780 1788
1780 2047
1780 3137
1780 3515
1780 4700
1781 2591
1781 2789
1781 2893
1781 2940
1781 3127
1781 3137
1781 3281
1781 4013
1782 2148
1782 2616
1782 3974
1783 4360
1783 4828
1784 1787
1784 3108
1784 3876
1785 1798
1785 2969
1786 1789
1786 1795
1786 1816
1786 2308
1786 2403
1786 4526
1786 4548
1787 1798
1787 3552
1788 1797
1788 1799
1788 2361
1788 2585
1788 4405
1788 4977
1789 1799
1789 2524
1789 3802
1789 4487
1790 3364
1790 3479
1792 2096
1792 3211
1792 3961
1793 1795
1793 1797
1793 1799
1793 1936
1793 2406
1793 3513
1793 3879
1793 3908
1793 4477
1793 4539
1794 3683
1794 3946
1795 2535
1795 2541
1796 1797
1796 3051
1796 3471
1796 4974
1797 1798
1797 1903
1797 2479
1797 2947
1797 4122
1797 4313
1798 2106
1798 2589
1799 3672
1799 4346
1800 1811
1800 1825
1800 1833
1800 3810
1801 1805
1801 1806
1801 1809
1801 1820
1801 1828
1801 1833
1801 2213
1801 3015
1801 3342
1801 3698
1802 1804
1802 1811
1802 1820
1802 1824
1802 1830
1802 1980
1802 2145
1802 2594
1802 3094
1802 3942
1803 1813
1803 1825
1803 1827
1803 1831
1803 1835
1803 1849
1803 2866
1803 2879
1803 3049
1803 3599
1803 3674
1803 3992
1803 4107
1804 1807
1804 1823
1804 1832
1804 1843
1804 3711
1804 3861
1804 4242
1804 4725
1805 1810
1805 1820
1805 1844
1805 1893
1805 2565
1805 3841
1805 4539
1806 1809
1806 1824
1806 1835
1807 1809
1807 1816
1807 1823
1807 1824
1807 1825
1807 1833
1807 1841
1807 2153
1807 3701
1807 4006
1807 4382
1807 4645
1808 1817
1808 1840
1808 1841
1809 1822
1809 1829
1809 3109
1809 4196
1810 1816
1810 1830
1810 1843
1810 2058
1811 1812
1811 1818
1811 2814
1811 3652
1811 4244
1811 4761
1812 1817
1812 1833
1812 1835
1812 1844
1812 1849
1812 2214
1812 4455
1812 4559
1813 1819
1813 1829
1813 1833
1813 1847
1813 1921
1813 3501
1814 1821
1814 1840
1814 1843
1814 1849
1814 2315
1814 3253
1814 3492
1814 3686
1815 1836
1815 2691
1816 1820
1816 1828
1816 1835
1816 1843
1816 3791
1816 3928
1817 1825
1817 1832
1817 1833
1817 1848
1817 2572
1817 3064
1817 3662
1817 3838
1818 1819
1818 1820
1818 1822
1818 1823
1818 1834
1818 1838
1818 1846
1818 2214
1818 4939
1819 1827
1819 1832
1819 1848
1819 3062
1820 1826
1820 1843
1820 2426
1820 2516
1820 3728
1821 1830
1821 1839
1821 2327
1821 3222
1822 1825
1822 1828
1822 1832
1822 1839
1822 1849
1822 2315
1822 2619
1822 3022
1822 4566
1822 4654
1823 1836
1823 1838
1823 1847
1823 3447
1823 4622
1824 1825
1824 1837
1824 1844
1824 4254
1825 2023
1825 2384
1825 3217
1825 3981
1825 4768
1826 1829
1826 1833
1826 1834
1826 1839
1826 1848
1826 4728
1827 2077
1827 2164
1827 2238
1827 3014
1827 3552
1827 4034
1827 4978
1828 1829
1828 1832
1828 1841
1828 1849
1828 4260
1829 1832
1829 1837
1829 1845
1829 1846
1829 2915
1829 4954
1830 3593
1830 3642
1831 1834
1831 1882
1831 4512
1832 2812
1832 4348
1833 1834
1833 1841
1833 2448
1833 2907
1833 3425
1834 1838
1834 1839
1834 2336
1834 2579
1834 4083
1835 1842
1835 1845
1835 2050
1836 2461
1837 1839
1837 1977
1837 4675
1838 1848
1838 1883
1838 3249
1838 3259
1838 3638
1838 4528
1839 1987
1839 3442
1839 3871
1839 3929
1839 4006
1839 4497
1839 4710
1840 1843
1840 3651
1841 1844
1841 1847
1841 3928
1842 2572
1842 3143
1843 1886
1843 2388
1843 4420
1843 4567
1844 3237
1844 3301
1844 3883
1844 4279
1845 2604
1845 3185
1845 4925
1846 1847
1847 1848
1847 2465
1847 4072
1847 4159
1847 4161
1847 4618
1848 1981
1848 3895
1848 4026
1848 4170
1848 4753
1849 3325
1850 1858
1850 1868
1850 1884
1850 1899
1850 2812
1850 3090
1850 4274
1850 4422
1850 4702
1851 1856
1851 1878
1851 1880
1851 2326
1851 3536
1851 4252
1851 4493
1851 4531
1851 4641
1852 1861
1852 1865
1852 1874
1852 1880
1852 1889
1852 1892
1852 1899
1852 2455
1852 3076
1852 4075
1852 4941
1853 1867
1853 1868
1853 1871
1853 1880
1853 1884
1853 1885
1853 1889
1853 1898
1853 2257
1853 2968
1853 3182
1853 3873
1854 1855
1854 1857
1854 1859
1854 1867
1854 1892
1854 1893
1854 1897
1854 2792
1854 3548
1854 4311
1854 4582
1855 1858
1855 1869
1855 1871
1855 1875
1855 1887
1855 1890
1855 1897
1855 2703
1855 3536
1855 3902
1855 4075
1856 1861
1856 1866
1856 1879
1856 1881
1856 1893
1856 3976
1856 4310
1856 4392
1856 4493
1857 1862
1857 1878
1857 2380
1857 3144
1858 1860
1858 1865
1858 1884
1858 1886
1858 1894
1858 1897
1858 2380
1858 2702
1858 3098
1858 4081
1859 1872
1859 1889
1859 4920
1860 1863
1860 1865
1860 1895
1860 3827
1860 4636
1860 4866
1861 1876
1861 1885
1861 1895
1861 3072
1862 1863
1862 1883
1862 1889
1862 1890
1862 1892
1862 3347
1863 1868
1863 1873
1863 1887
1863 1896
1864 1869
1864 1873
1864 1892
1864 2993
1864 3482
1865 1867
1865 1887
1865 4701
1866 1869
1866 1873
1866 1875
1866 1894
1866 3414
1867 1874
1867 4264
1868 1877
1868 1878
1868 1881
1868 1883
1868 1889
1868 1898
1868 2453
1868 2576
1868 2757
1869 1879
1869 1884
1869 1889
1869 1895
1869 1897
1869 2248
1869 3869
1870 1882
1870 1895
1870 2013
1870 2616
1870 3061
1870 4809
1871 1883
1871 1889
1871 1893
1871 1895
1872 1876
1872 1888
1872 4430
1873 1885
1873 1889
1873 1973
1873 2233
1873 2450
1873 2505
1873 2616
1873 3104
1874 1876
1874 1880
1874 1884
1874 1885
1874 1888
1874 1890
1874 1896
1874 1898
1874 3120
1874 4700
1874 4876
1875 1895
1875 4259
1875 4881
1876 1885
1876 1890
1876 2634
1877 1878
1877 2494
1877 3065
1877 4208
1878 3785
1878 4570
1879 1892
1879 1895
1879 1897
1879 2363
1879 2481
1879 4896
1880 1886
1880 1887
1880 1889
1880 1899
1880 4799
1881 1887
1881 2622
1881 3095
1881 3696
1881 3915
1881 4270
1881 4594
1882 1885
1882 1887
1882 1889
1882 1896
1882 1898
1882 1952
1882 2880
1882 3327
1882 4663
1882 4762
1883 1887
1883 2018
1884 1888
1884 1889
1884 2241
1884 3526
1884 4068
1884 4811
1885 1886
1885 1895
1885 1898
1885 2415
1885 2705
1885 2713
1885 3398
1885 4505
1886 1887
1886 2966
1886 3126
1886 3536
1886 4169
1887 1891
1887 4285
1887 4715
1888 1892
1888 4153
1889 1896
1889 2050
1889 2990
1889 3260
1889 3738
1889 4196
1889 4322
1890 1898
1890 3126
1890 3893
1891 1898
1891 1928
1891 2741
1892 1897
1892 3062
1892 3301
1892 3315
1892 3793
1892 4163
1892 4690
1893 2308
1894 4502
1894 4645
1895 3274
1895 3477
1895 4443
1897 2640
1897 2767
1897 3263
1897 3550
1897 3684
1898 1908
1898 3081
1898 3551
1898 4098
1899 2338
1900 1901
1900 1936
1900 1938
1900 1940
1900 1947
1900 2659
1900 2671
1901 1924
1901 1931
1901 1934
1901 1946
1901 1949
1901 2113
1901 2853
1901 3964
1902 1904
1902 1910
1902 1935
1902 1936
1902 1937
1902 1947
1902 3768
1902 4183
1902 4249
1902 4400
1902 4995
1903 1909
1903 1911
1903 1916
1903 1917
1903 1922
1903 1927
1903 1945
1903 1949
1904 1907
1904 1927
1904 1935
1904 1948
1904 2359
1904 2911
1905 1927
1905 1940
1905 2374
1905 2473
1905 4963
1906 1924
1906 1934
1906 1941
1906 2668
1906 3143
1906 4954
1907 1920
1907 1931
1907 1934
1907 1941
1907 1946
1907 1949
1908 1909
1908 1916
1908 1918
1908 1929
1908 1930
1908 1948
1908 2415
1908 3061
1908 3149
1909 1916
1909 1919
1909 2349
1909 2432
1909 3380
1909 3790
1909 4234
1909 4534
1910 1913
1910 1915
1910 1931
1910 1943
1910 1947
1910 2808
1910 4066
1911 1924
1911 1934
1911 1986
1911 2717
1912 1918
1912 1920
1912 1925
1912 1929
1912 3733
1912 3848
1912 4702
1913 1933
1913 2099
1913 3105
1913 3743
1914 1924
1914 1928
1914 1930
1914 1943
1914 3146
1914 3295
1915 1919
1915 1925
1915 1932
1915 1934
1915 2529
1915 2941
1915 3578
1915 3831
1915 4791
1916 1918
1916 1921
1916 1945
1916 1949
1916 4894
1917 1929
1917 1931
1917 3954
1918 1925
1918 1939
1918 1946
1918 1948
1918 2542
1918 4213
1919 1925
1919 1942
1919 2292
1919 4904
1920 1921
1920 1926
1920 1933
1920 1936
1920 1940
1920 1945
1920 2591
1920 3547
1920 3736
1920 3967
1921 1928
1921 1931
1921 1934
1921 1937
1921 1948
1921 4048
1921 4218
1922 1930
1922 1933
1922 1940
1922 1949
1922 4774
1923 1932
1923 1934
1923 1942
1923 1944
1923 1947
1923 4275
1923 4720
1924 1934
1924 1936
1924 1941
1924 1942
1924 2177
1924 4714
1925 1929
1925 1936
1925 1938
1925 1942
1925 2257
1925 4512
1926 1941
1926 1949
1926 2007
1926 2111
1926 2266
1926 2292
1926 2988
1926 4305
1926 4684
1927 1928
1927 1934
1927 3016
1927 3216
1927 3237
1927 3794
1927 3816
1928 1936
1928 1941
1928 1948
1928 2125
1928 2546
1928 2736
1928 3044
1928 3644
1929 1938
1929 1942
1929 1947
1929 3235
1930 1931
1930 1937
1930 1939
1930 1946
1930 1948
1930 2927
1930 3020
1930 4009
1931 1942
1931 1947
1931 3232
1932 2191
1932 2314
1932 3047
1932 3271
1932 3549
1932 3571
1932 3801
1932 4724
1933 1934
1934 1949
1934 2260
1934 2454
1934 3461
1934 4313
1934 4762
1935 1939
1935 2877
1936 2026
1936 2583
1936 4245
1936 4357
1937 1938
1937 1940
1937 1943
1937 1944
1937 1946
1937 2944
1938 2396
1938 4994
1939 2011
1939 2744
1939 3070
1939 3823
1940 1946
1940 3642
1940 3904
1940 4102
1941 3118
1942 1945
1942 2155
1942 4362
1943 1947
1943 2292
1943 3276
1943 4266
1944 1946
1944 1947
1944 2182
1944 2595
1944 3388
1944 3703
1944 4181
1945 3207
1945 3758
1945 4250
1946 2589
1946 2906
1946 3278
1946 4705
1947 1948
1947 2348
1947 4087
1948 3258
1948 3360
1949 2439
1949 3736
1949 4818
1949 4831
1950 1978
1950 1992
1950 2541
1950 2697
1950 2955
1950 3425
1951 1958
1951 1968
1951 1984
1951 4255
1951 4700
1952 1961
1952 1969
1952 1971
1952 1981
1952 1987
1952 1994
1952 3481
1952 4308
1952 4501
1953 1967
1953 1988
1953 1990
1953 3812
1953 4071
1953 4227
1954 1993
1954 1995
1954 1997
1954 3193
1955 1966
1955 4065
1955 4112
1956 1979
1956 1993
1956 2284
1956 3400
1956 3947
1957 1960
1957 1967
1958 1968
1958 1971
1958 1988
1958 1989
1958 1994
1958 1995
1958 1999
1958 2361
1958 2848
1958 2908
1958 3074
1958 3597
1958 3707
1958 4128
1959 1966
1959 1968
1959 1997
1959 2787
1960 1963
1960 1968
1960 1969
1960 1992
1960 1993
1960 2783
1960 2914
1960 2982
1960 3391
1960 3613
1960 4593
1961 1969
1961 1971
1961 1987
1961 1988
1961 1990
1961 1995
1961 1997
1961 4988
1962 1984
1962 1988
1962 1994
1962 2005
1962 3119
1962 3370
1962 4587
1963 1973
1963 1977
1963 4082
1963 4802
1964 1994
1964 1998
1964 3412
1964 3535
1964 3888
1964 4937
1965 1970
1965 1983
1965 1998
1965 2252
1965 3049
1965 4557
1966 1971
1966 1973
1966 1993
1966 2065
1966 3231
1967 1972
1967 1980
1967 1992
1967 1996
1967 2223
1967 2490
1967 2938
1967 3106
1967 3450
1967 3988
1968 1971
1968 1977
1968 1980
1968 1983
1968 3697
1969 1974
1969 1976
1969 1979
1969 1997
1969 3247
1969 3749
1969 4321
1970 1978
1970 1982
1970 1987
1970 3242
1971 1973
1971 1981
1971 1982
1971 1992
1971 1998
1971 2245
1971 3230
1971 4684
1972 1987
1972 1993
1972 1999
1972 3574
1972 4287
1973 1987
1973 1989
1973 2253
1974 1980
1974 1981
1974 1997
1974 3436
1974 3986
1974 4753
1975 1980
1975 3841
1975 4252
1976 1981
1976 1995
1976 1998
1976 2766
1976 2973
1976 3007
1976 4262
1976 4740
1977 1982
1977 1989
1977 3182
1977 3230
1977 4474
1978 2362
1978 3491
1978 3857
1978 4034
1979 1984
1979 1986
1979 1988
1979 1993
1979 1999
1979 3342
1979 4491
1979 4966
1980 1998
1980 2199
1980 3939
1980 4201
1980 4659
1980 4891
1981 1995
1981 1997
1981 2794
1981 2979
1981 3385
1981 3669
1981 4845
1982 1991
1982 2018
1982 2182
1982 3777
1982 4403
1982 4988
1983 1998
1983 3389
1983 3832
1983 4510
1984 1985
1984 2045
1984 2621
1984 2935
1984 3664
1984 3717
1984 4547
1985 1987
1985 2191
1985 2522
1985 3667
1985 4490
1986 1997
1986 2840
1986 3181
1986 3768
1987 1988
1987 1992
1987 1997
1987 2106
1987 4360
1987 4774
1987 4795
1988 1991
1988 1994
1988 1995
1988 2257
1988 2304
1988 3181
1988 3326
1988 3491
1988 4626
1989 1990
1989 2307
1989 2412
1989 4595
1990 1994
1990 2253
1991 1999
1991 2152
1991 2675
1991 4234
1991 4550
1992 1993
1992 3490
1993 4285
1993 4578
1993 4938
1994 1999
1994 3709
1995 2828
1995 4090
1996 2134
1996 2455
1996 2528
1996 3013
1996 3176
1996 3211
1996 4106
1996 4417
1997 3060
1997 3710
1997 4021
1998 2207
1998 2351
1998 2954
1998 3975
1999 2742
2000 2005
2000 2011
2000 2012
2000 2013
2000 2047
2000 2118
2000 2513
2000 3100
2000 3109
2000 3175
2000 3560
2000 3728
2000 4570
2001 2015
2001 2021
2001 2025
2001 2046
2001 2047
2001 3864
2002 2005
2002 2007
2002 2026
2002 2456
2002 3925
2002 4303
2002 4367
2003 2015
2003 2017
2003 2034
2003 3747
2003 4635
2003 4916
2004 2040
2004 2042
2004 2098
2004 2816
2004 3405
2004 3598
2004 4166
2005 2011
2005 2012
2005 2027
2005 2028
2005 2041
2005 2044
2005 2047
2005 2049
2005 3849
2005 4286
2006 2020
2006 2026
2006 2031
2006 4163
2007 2010
2007 2019
2007 2033
2007 2034
2007 2040
2007 2049
2007 3725
2007 3906
2007 4473
2008 2011
2008 2014
2008 2023
2008 2031
2008 2032
2008 2047
2008 3439
2008 4364
2008 4998
2009 2015
2009 2030
2009 2036
2009 2041
2009 2047
2009 2049
2009 4685
2010 2014
2010 2036
2010 2323
2010 2587
2010 3314
2010 4221
2010 4305
2011 2015
2011 2020
2011 2038
2011 2643
2011 4232
2011 4902
2012 2014
2012 2023
2012 2030
2012 2989
2012 4856
2013 2016
2013 2017
2013 2020
2013 2026
2013 2033
2013 2034
2013 2047
2013 2048
2013 3961
2013 3969
2013 4860
2014 2020
2014 2034
2014 2206
2014 3056
2014 3114
2014 3211
2015 2016
2015 2018
2015 2037
2015 2039
2015 2360
2015 2826
2015 2923
2016 2019
2016 2096
2016 2433
2016 3689
2017 2027
2017 2034
2017 2039
2017 2044
2017 3983
2018 2021
2018 2028
2018 2048
2018 4355
2019 2024
2019 2027
2019 2030
2019 2039
2019 2040
2019 4937
2020 2022
2020 2023
2020 2028
2020 2034
2020 2040
2020 2047
2020 2048
2020 3994
2020 4045
2021 2030
2021 2811
2021 3887
2021 4145
2022 2027
2022 2040
2022 2042
2022 2044
2022 2090
2022 3688
2022 4246
2023 2034
2023 2048
2023 3417
2023 3958
2024 2029
2024 2040
2024 2334
2024 2686
2024 3822
2024 4402
2024 4422
2024 4978
2025 2034
2025 2035
2025 2037
2025 2041
2025 2684
2026 2028
2026 2039
2026 2042
2026 4743
2027 2035
2027 2037
2027 2048
2027 3225
2027 3673
2027 3847
2027 4413
2028 2030
2028 2036
2028 2652
2028 2694
2029 2030
2029 2035
2029 2039
2029 3130
2029 3771
2029 3776
2029 4633
2030 2032
2030 2044
2030 3404
2030 4486
2031 2032
2031 2046
2031 4327
2032 2033
2032 2037
2032 2043
2032 2046
2032 4087
2032 4381
2033 2040
2033 2042
2033 2046
2033 2824
2033 2986
2033 4194
2034 3108
2034 3847
2034 4714
2035 2037
2035 2048
2035 2415
2035 2565
2035 2826
2035 2893
2035 3354
2035 4537
2035 4860
2036 2052
2036 2523
2036 3140
2036 3263
2036 3493
2036 4345
2036 4481
2036 4982
2037 2040
2037 2047
2037 3970
2037 4421
2038 2047
2038 2048
2038 2196
2038 4464
2038 4881
2039 2049
2039 2866
2040 2047
2040 2799
2040 3087
2040 3625
2040 3715
2040 3951
2041 2043
2041 2047
2041 3678
2041 3949
2041 4054
2041 4710
2042 2487
2042 4271
2043 2827
2044 2045
2044 2048
2044 2249
2044 3000
2045 2264
2045 2909
2045 3210
2045 3250
2046 3064
2046 4244
2046 4806
2047 2103
2047 2152
2047 3762
2047 3848
2047 4065
2047 4234
2049 2468
2049 2470
2049 3155
2049 3207
2049 3303
2049 3586
2049 3612
2049 4896
2050 2051
2050 2052
2050 2066
2050 2073
2050 2078
2050 2099
2050 2823
2050 3499
2050 3929
2051 2065
2051 2080
2051 2082
2051 2085
2051 2090
2051 2094
2051 2096
2051 2788
2051 2890
2051 3432
2051 3682
2051 4156
2052 2057
2052 2060
2052 2061
2052 2063
2052 2064
2052 2083
2052 2091
2052 2093
2052 2094
2052 2348
2052 3828
2052 4967
2053 2062
2053 2068
2053 2079
2053 2087
2053 2093
2053 2235
2053 2734
2053 3213
2053 4592
2054 2083
2054 2085
2055 2060
2055 2061
2055 2062
2055 2070
2055 2082
2055 2089
2055 2092
2056 2057
2056 2058
2056 2075
2056 2086
2056 2703
2056 3625
2056 4603
2056 4965
2057 2062
2057 2973
2057 3147
2057 3772
2058 2077
2058 2078
2058 2081
2058 2084
2058 2097
2058 3695
2058 4242
2058 4894
2059 2070
2059 2081
2059 2083
2059 2093
2059 3762
2059 3780
2060 2071
2060 3512
2060 3688
2060 4861
2061 2079
2061 2086
2061 2098
2061 2381
2061 3509
2061 4131
2061 4966
2062 2064
2062 2080
2062 2094
2062 2099
2062 2851
2062 2995
2062 4133
2062 4599
2062 4784
2063 2065
2063 2071
2063 2077
2063 2088
2063 2090
2063 2102
2063 2920
2063 4409
2064 2067
2064 2088
2064 2156
2064 2351
2064 4705
2065 2072
2065 2073
2065 2075
2065 2099
2065 2704
2065 2739
2065 3157
2065 4752
2066 2067
2066 2070
2066 2073
2066 2077
2066 2081
2066 2098
2067 2075
2067 2077
2067 2598
2067 2770
2067 3037
2067 3961
2067 4440
2067 4738
2068 2078
2068 2096
2068 2097
2068 2099
2068 2591
2068 4695
2069 2082
2069 2087
2069 2419
2069 2530
2069 2951
2069 4809
2070 2075
2070 2089
2070 2091
2070 2095
2070 2883
2070 3156
2070 3622
2071 2074
2071 2080
2071 2302
2071 2382
2071 2474
2071 3840
2071 4540
2071 4859
2071 4996
2072 2074
2072 2083
2072 2093
2072 2094
2072 2095
2072 2399
2072 2409
2072 3409
2072 3697
2072 4668
2072 4922
2073 2078
2073 2089
2073 2718
2073 4118
2073 4164
2074 2094
2074 2974
2074 3210
2074 4156
2074 4981
2075 2079
2075 2096
2076 2078
2076 3756
2076 4842
2077 2081
2077 2084
2077 2575
2078 2096
2078 2409
2078 3113
2078 4825
2079 2086
2079 2092
2080 2092
2080 2093
2080 2572
2080 2979
2080 4140
2080 4305
2080 4326
2081 2089
2081 2091
2081 2698
2081 2717
2081 4124
2081 4626
2082 2086
2082 2087
2082 3176
2082 3662
2082 3797
2083 2096
2083 3329
2083 3445
2083 4302
2084 2097
2084 3894
2084 4330
2085 2086
2085 3031
2085 3512
2085 3730
2085 4055
2085 4142
2086 2091
2086 2096
2086 2555
2086 2713
2086 3000
2086 3304
2087 2099
2087 2823
2088 2099
2088 2586
2088 3629
2088 3639
2088 4663
2089 2091
2089 2092
2089 2991
2089 3695
2090 2091
2090 2094
2090 2096
2090 2337
2090 3360
2090 3774
2091 2092
2091 2093
2091 2098
2091 3090
2091 3107
2091 3326
2091 4004
2091 4114
2091 4454
2092 3696
2092 4808
2093 4937
2094 2179
2094 2941
2094 4732
2095 2351
2095 2705
2095 2985
2096 2099
2097 3599
2097 4386
2098 2099
2098 3476
2098 3565
2099 2363
2099 2695
2099 2807
2100 2117
2100 2123
2100 2127
2100 2132
2100 2145
2100 4868
2101 2119
2101 2123
2101 2124
2101 2125
2101 2128
2101 2131
2101 2144
2101 3627
2101 4784
2102 2105
2102 2108
2102 2113
2102 2133
2102 2140
2102 3777
2103 2107
2103 2113
2103 2125
2103 2136
2103 2158
2103 2327
2103 3118
2104 2114
2104 2119
2104 2120
2104 2121
2104 2135
2104 2694
2104 4699
2104 4744
2105 2117
2105 2136
2105 2513
2105 3296
2106 2113
2106 2114
2106 2121
2106 2132
2106 2136
2106 2144
2106 2439
2106 3853
2106 4155
2107 2129
2107 2145
2107 2890
2107 3631
2107 4214
2108 2113
2108 2118
2108 2131
2108 2194
2108 3160
2109 2137
2109 2149
2109 2677
2109 2913
2109 3239
2109 3574
2109 3717
2109 3878
2110 2144
2110 2146
2110 3734
2111 2115
2111 2121
2111 2139
2111 2562
2111 3247
2112 2123
2112 2145
2112 2554
2112 3883
2112 4345
2113 2117
2113 2121
2113 2133
2113 2136
2113 3803
2114 2121
2114 2131
2114 2132
2115 2116
2115 2124
2115 2126
2115 2133
2115 2143
2115 2153
2115 2838
2115 3289
2115 3440
2115 3935
2115 4481
2115 4775
2116 2146
2117 2135
2117 2545
2118 2130
2118 2140
2118 2145
2118 2679
2118 2746
2119 2131
2119 2137
2119 2140
2119 2145
2119 3011
2119 3473
2119 3687
2119 3829
2119 4448
2119 4845
2120 2442
2120 3169
2120 3897
2121 2123
2121 2127
2121 2135
2121 2137
2121 2139
2121 2400
2121 3259
2122 2129
2122 2139
2122 2437
2122 2763
2122 4462
2123 2141
2123 2142
2123 2240
2123 2246
2123 2583
2123 2755
2123 3409
2124 2125
2124 2689
2124 3073
2125 2730
2125 2966
2125 3555
2125 3647
2125 4424
2125 4862
2126 2136
2126 2140
2126 2283
2126 2325
2126 3057
2127 2143
2127 2145
2127 3147
2127 3249
2128 2136
2128 2145
2129 2132
2129 2138
2129 2147
2129 2675
2129 3520
2130 2136
2130 2419
2130 4003
2131 2133
2131 2142
2131 2147
2131 3384
2131 4654
2131 4810
2132 2137
2132 3939
2134 2136
2134 2149
2134 3641
2134 3763
2134 4808
2135 3352
2136 2138
2136 2139
2136 2145
2136 2148
2136 2740
2136 4735
2137 2141
2137 2294
2137 4017
2138 2142
2138 2200
2138 3053
2138 4584
2139 2142
2139 4723
2141 2330
2141 2492
2141 2698
2141 4388
2142 2395
2142 3828
2143 3596
2143 3902
2143 4282
2143 4967
2144 2746
2144 4931
2145 4078
2146 2247
2146 2791
2146 3610
2146 4807
2147 2149
2147 4824
2148 2323
2148 2793
2148 2980
2148 3454
2148 4774
2149 3471
2149 4574
2150 2151
2150 2155
2150 2167
2150 2168
2150 2187
2150 2191
2150 2286
2150 4158
2150 4166
2150 4265
2151 2152
2151 2155
2151 2156
2151 2165
2151 2173
2151 2175
2151 2179
2151 2186
2151 4271
2152 2172
2152 2189
2152 2194
2152 2197
2152 3785
2152 3901
2152 4000
2153 2156
2153 2164
2153 2171
2153 2176
2153 2184
2153 2192
2153 2193
2153 2197
2153 4265
2153 4947
2154 2167
2154 2169
2154 2183
2154 2189
2154 2191
2154 2192
2154 2198
2154 2252
2154 2343
2154 2567
2154 2612
2154 2676
2154 2716
2154 3954
2154 4575
2154 4969
2155 2171
2155 2173
2155 2192
2155 2195
2155 2634
2155 2771
2155 4013
2156 2173
2156 2182
2156 2186
2156 2192
2156 4736
2156 4998
2157 2170
2157 2173
2157 2385
2157 4171
2158 2162
2158 2164
2158 2165
2158 2187
2158 2192
2158 2361
2158 2966
2158 3796
2158 4385
2158 4528
2158 4742
2159 2162
2159 2169
2159 2173
2159 2179
2159 2180
2159 2190
2159 2193
2159 2199
2159 2485
2159 2599
2159 3033
2159 3194
2159 3682
2159 4182
2159 4446
2160 2162
2160 2172
2160 2179
2160 2190
2160 2195
2160 2198
2160 2462
2160 2539
2160 2975
2160 4465
2161 2162
2161 2167
2161 2173
2161 2181
2161 2188
2161 2192
2161 2197
2161 2373
2161 2419
2161 2782
2161 3555
2161 3809
2161 4698
2162 2168
2162 2931
2162 4390
2162 4452
2163 2174
2163 2176
2163 2182
2163 2190
2163 2194
2163 2195
2163 2199
2163 2513
2163 4000
2163 4367
2163 4472
2163 4886
2164 2176
2164 2182
2164 2189
2164 2800
2165 2179
2165 2195
2165 3082
2165 3278
2165 3642
2165 4309
2165 4315
2166 2170
2166 2172
2166 2173
2166 2186
2166 2190
2166 2198
2166 4348
2166 4492
2166 4497
2167 2168
2167 2174
2167 2185
2167 2193
2167 2196
2167 2637
2167 4667
2168 2171
2168 2178
2168 3204
2168 4123
2168 4383
2168 4464
2169 2190
2169 2197
2169 2199
2169 3141
2170 2171
2170 2179
2170 2186
2170 2187
2170 2193
2170 2197
2170 2198
2170 3966
2171 2178
2171 2184
2171 2185
2171 4503
2171 4960
2172 2173
2172 2185
2172 2196
2172 2197
2172 3422
2172 3902
2173 2182
2173 2694
2173 3724
2174 2182
2174 2197
2174 3114
2174 3342
2174 4351
2174 4838
2175 2178
2175 2191
2175 2193
2175 2197
2175 2798
2175 2827
2175 3206
2175 4266
2175 4354
2175 4790
2175 4881
2176 2564
2176 3304
2176 3319
2176 3569
2176 3576
2176 4225
2177 2189
2177 4366
2177 4714
2178 2179
2178 2181
2178 2195
2178 3393
2178 3540
2178 4015
2178 4443
2179 2185
2179 2186
2179 3196
2179 3902
2179 4200
2179 4713
2180 2192
2180 2197
2180 4916
2181 2182
2181 2192
2181 2961
2181 2972
2181 4005
2182 2187
2182 2275
2182 3519
2182 4046
2182 4458
2182 4696
2183 2188
2183 2197
2183 4166
2183 4248
2183 4449
2184 2985
2184 4454
2185 2289
2185 2443
2185 2718
2185 4479
2185 4834
2186 2193
2186 2198
2186 4206
2187 3232
2187 3460
2187 4225
2188 2197
2188 4182
2188 4258
2189 2192
2189 2199
2189 2480
2189 2636
2189 4080
2190 2551
2190 3928
2190 4006
2190 4278
2190 4681
2191 2195
2191 2527
2191 3583
2191 3619
2191 3883
2192 3923
2192 3979
2192 4590
2193 2199
2193 2849
2194 2198
2194 3199
2194 3936
2194 4190
2194 4762
2195 2197
2195 2199
2195 2874
2195 2981
2195 3433
2196 4404
2197 2300
2197 3419
2197 4602
2198 3674
2199 4633
2200 2210
2200 2217
2200 2220
2200 2227
2200 2230
2200 2233
2200 2245
2200 2249
2200 4096
2200 4229
2200 4608
2200 4906
2201 2215
2201 2218
2201 2230
2201 2238
2201 2243
2201 2244
2201 2246
2201 2715
2201 3335
2201 3338
2201 4443
2201 4784
2202 2233
2202 2240
2202 2243
2202 2246
2202 2579
2202 4090
2202 4552
2203 2236
2203 2247
2203 2827
2204 2211
2204 2227
2204 2236
2204 3166
2204 3702
2205 2210
2205 2215
2205 2228
2205 2240
2205 2461
2205 3663
2205 3710
2205 3862
2205 4190
2206 2214
2206 2246
2206 2248
2206 2254
2206 3409
2206 4689
2206 4842
2207 2220
2208 2426
2208 3981
2209 2210
2209 2212
2209 2219
2209 2226
2209 2242
2209 2814
2209 3455
2210 2370
2210 3267
2210 3621
2210 3967
2210 4477
2211 2216
2211 2222
2211 2223
2211 2226
2211 2229
2211 2240
2211 4457
2211 4755
2211 4816
2212 2217
2212 2239
2212 2464
2212 2943
2212 3661
2212 3702
2212 4320
2213 2215
2213 2228
2213 2238
2214 2220
2214 2231
2214 2739
2214 3256
2214 3610
2214 4148
2215 2219
2215 2231
2215 2318
2215 3549
2215 3720
2216 2233
2216 2234
2216 2236
2216 2240
2217 2222
2217 2226
2217 2244
2218 2222
2218 2230
2218 2235
2218 2245
2218 2249
2218 3683
2218 4703
2219 2222
2219 2229
2219 2248
2219 3114
2219 3249
2220 2223
2220 2227
2220 2246
2220 2469
2220 2600
2220 2877
2220 3136
2221 2227
2221 2238
2221 2239
2221 2244
2221 3010
2221 3838
2221 4098
2221 4132
2221 4335
2222 2226
2222 2235
2222 2433
2222 4541
2222 4776
2223 3118
2223 4970
2224 2228
2224 2425
2224 2496
2224 3799
2224 4901
2225 2230
2225 2241
2225 2836
2225 4704
2226 2237
2226 2240
2226 2956
2226 3305
2226 3890
2226 3933
2227 2243
2227 2843
2227 3222
2227 3561
2227 4991
2228 2239
2228 3586
2228 3876
2228 4053
2228 4939
2229 3840
2229 4685
2230 2231
2230 2239
2230 2243
2230 2245
2231 2233
2231 2238
2231 3604
2231 3929
2231 4458
2232 2246
2232 2572
2232 3783
2232 4150
2232 4693
2232 4783
2233 2241
2233 2983
2233 3888
2233 4152
2234 2235
2234 2236
2234 2684
2234 2963
2234 3563
2234 4185
2234 4898
2235 2485
2235 3137
2235 3644
2235 3654
2235 3963
2235 4305
2235 4601
2236 2238
2236 2239
2236 3921
2237 2240
2237 3276
2237 4197
2237 4886
2238 2245
2238 2877
2238 3905
2239 2240
2239 2242
2239 2893
2239 4019
2239 4255
2239 4333
2239 4425
2239 4608
2239 4786
2240 2824
2240 2943
2240 2985
2240 4622
2241 3803
2242 2335
2242 4028
2242 4475
2243 2681
2243 3727
2243 3856
2244 2636
2244 4235
2245 2433
2245 2445
2246 3116
2246 3346
2246 3517
2246 3660
2246 3901
2247 3056
2248 2344
2248 2348
2248 2557
2248 3356
2248 4185
2248 4321
2249 2296
2249 2777
2249 2917
2249 4021
2249 4347
2250 2253
2250 2275
2250 2277
2250 2651
2250 2670
2250 2703
2250 4663
2250 4714
2250 4772
2251 2252
2251 2255
2251 2257
2251 2273
2251 2295
2251 2297
2252 2259
2252 2263
2252 2296
2252 2298
2252 3165
2252 3414
2252 3659
2252 4577
2252 4820
2253 2255
2253 2263
2253 2266
2253 4867
2254 2285
2254 3547
2254 3678
2254 3818
2255 2257
2255 2266
2255 2268
2255 2269
2255 2281
2255 4659
2255 4721
2255 4825
2256 2273
2256 3416
2256 3870
2257 2293
2257 2424
2257 2773
2258 2268
2258 2275
2258 2277
2258 2299
2258 2590
2258 2743
2259 2264
2259 2268
2259 2272
2259 2295
2260 2273
2260 2277
2260 2279
2260 2292
2260 2297
2261 2266
2261 3619
2262 2283
2262 3348
2262 3690
2263 2266
2263 2274
2263 2284
2264 2270
2264 2281
2264 2289
2264 2293
2264 2295
2264 3266
2264 4652
2265 2283
2265 2295
2265 3018
2265 3636
2265 4932
2266 2267
2266 2280
2266 2513
2267 2270
2267 2272
2267 2289
2267 2292
2267 3174
2267 3840
2268 2285
2268 2549
2268 2628
2268 2710
2268 3489
2269 2275
2269 2277
2269 2776
2269 4698
2270 2283
2270 4929
2271 2289
2271 2293
2271 3100
2271 4484
2271 4621
2272 2288
2272 2791
2272 3102
2272 3333
2272 3491
2272 4280
2272 4735
2272 4931
2273 2280
2273 2284
2273 2287
2273 2299
2273 3052
2273 3796
2273 3820
2273 4384
2273 4409
2274 2281
2274 2293
2274 2733
2274 3277
2274 3724
2274 4316
2274 4350
2275 2593
2275 3286
2275 4073
2275 4143
2275 4535
2276 2281
2276 2293
2276 2296
2276 2602
2276 4900
2277 2288
2277 2298
2277 2299
2277 4811
2277 4909
2278 2284
2278 2293
2278 3463
2278 3523
2278 3578
2278 4557
2278 4633
2279 2280
2279 2291
2279 2297
2279 2533
2280 2294
2280 2295
2280 2551
2280 3992
2280 4641
2280 4715
2281 2283
2281 2284
2281 2286
2281 2289
2281 2295
2281 2299
2281 2401
2281 2513
2281 2531
2281 4269
2282 2287
2282 2290
2282 2293
2282 3774
2282 4282
2282 4846
2283 2299
2283 2736
2283 3283
2284 2285
2284 2287
2284 2289
2284 2291
2284 2293
2284 2296
2284 3804
2285 2290
2285 4192
2285 4768
2286 2297
2286 2438
2286 2805
2287 2290
2287 3106
2287 3396
2287 4564
2288 2295
2288 2298
2288 2545
2288 2594
2288 2754
2288 3624
2288 4566
2288 4938
2289 2293
2289 2298
2289 2703
2290 2859
2290 4614
2291 4416
2291 4714
2292 2298
2292 4296
2292 4364
2293 2294
2293 4264
2294 3184
2295 4273
2296 3065
2296 3736
2296 4525
2296 4544
2297 4553
2297 4657
2298 3458
2298 3941
2298 4748
2299 2447
2299 4619
2300 2304
2300 2307
2300 2310
2300 2312
2300 2316
2300 2326
2300 2340
2300 2343
2300 3172
2300 4455
2300 4729
2301 2305
2301 2307
2301 2323
2301 2328
2301 2654
2301 2838
2302 2304
2302 2309
2302 2314
2302 2316
2302 2322
2302 2323
2302 2332
2302 2341
2302 4937
2303 2313
2303 2321
2303 2325
2303 2338
2303 2347
2303 4472
2304 2311
2304 2313
2304 2317
2304 2319
2304 2338
2304 2344
2304 2388
2304 3215
2304 3866
2304 4690
2305 3069
2305 4073
2305 4715
2306 2308
2306 2337
2306 2348
2306 3383
2306 4468
2306 4639
2306 4985
2307 2315
2307 2317
2307 2328
2307 2329
2307 2333
2307 2342
2307 2348
2307 3568
2307 4876
2308 2332
2308 2928
2308 3228
2308 4507
2309 2314
2309 2325
2309 2342
2309 4796
2310 2316
2310 2317
2310 2321
2310 2323
2310 2348
2310 2836
2310 4316
2311 2319
2311 2328
2311 2343
2311 2346
2311 2348
2311 2989
2311 3212
2311 4288
2311 4748
2311 4857
2312 2327
2312 2332
2312 2342
2312 3762
2312 4883
2313 2324
2313 2341
2313 2344
2313 2347
2313 3017
2313 3519
2313 4587
2314 2320
2314 2327
2314 2341
2314 2342
2314 2852
2315 2327
2315 2334
2315 4840
2316 2327
2316 2330
2316 2347
2317 2324
2317 2327
2317 2328
2317 4646
2317 4781
2317 4823
2318 2331
2318 2332
2318 2333
2318 2343
2318 2345
2318 2935
2319 2332
2319 2339
2319 3017
2319 3048
2319 4920
2320 2326
2320 2346
2320 2348
2320 2824
2321 2331
2321 2335
2321 2342
2321 4703
2321 4756
2322 2346
2322 2348
2322 2349
2322 4083
2322 4397
2323 2330
2323 2335
2323 2336
2323 2727
2323 2797
2323 4049
2323 4407
2324 2344
2324 2345
2324 2346
2324 3485
2324 3841
2324 4236
2325 2336
2325 2341
2325 2510
2325 3224
2325 3341
2326 2439
2326 3151
2326 3866
2327 2836
2327 3464
2327 3686
2327 4133
2328 3191
2328 3192
2329 2346
2329 4403
2329 4587
2330 2338
2330 2339
2330 3070
2330 3387
2330 3698
2330 4227
2330 4359
2331 2338
2333 2337
2333 2347
2334 2555
2334 3420
2334 4208
2335 2349
2335 3106
2335 3715
2335 4612
2335 4723
2335 4988
2336 2344
2336 3002
2336 4341
2337 2616
2337 3886
2338 2339
2338 2348
2338 4083
2339 3029
2339 3110
2340 2349
2340 2872
2340 3438
2341 2352
2341 2566
2341 4177
2342 2347
2343 3688
2343 4555
2343 4809
2344 3301
2344 3367
2344 4811
2345 2346
2345 2913
2345 3086
2345 4315
2345 4466
2346 2349
2346 2768
2346 2911
2346 3495
2346 4204
2346 4300
2346 4506
2347 2870
2347 2940
2347 2946
2347 3883
2347 4759
2348 2993
2348 3432
2348 4474
2349 2470
2349 2680
2349 3726
2349 4403
2349 4731
2350 2356
2350 2373
2350 2375
2350 2384
2350 2386
2350 3097
2350 4190
2351 2352
2351 2354
2351 2361
2351 2363
2351 2393
2351 3083
2352 2358
2352 2374
2352 2378
2352 2386
2352 2393
2352 2399
2352 2897
2352 3460
2352 4789
2353 2356
2353 2369
2353 2373
2353 2391
2353 2425
2353 2701
2353 4894
2354 2358
2354 2376
2354 2379
2354 2391
2354 2448
2354 4446
2354 4860
2355 2359
2355 2369
2355 2371
2355 2372
2355 2376
2355 2382
2355 2395
2355 2834
2356 2360
2356 2388
2356 2391
2356 3103
2357 2375
2357 2383
2357 3254
2357 4372
2357 4843
2358 2361
2358 2363
2358 2365
2358 2384
2358 2388
2358 4621
2358 4964
2359 2380
2359 2390
2359 2393
2359 4754
2360 2374
2360 2385
2360 2389
2360 2802
2360 3196
2360 4095
2360 4799
2361 2362
2361 2375
2361 2378
2361 2383
2361 2390
2361 2527
2362 2363
2362 2364
2362 2368
2362 2370
2362 2371
2362 2392
2362 2396
2362 2398
2362 2399
2362 3306
2362 4739
2363 2370
2363 2372
2363 2373
2363 2374
2363 2381
2363 4233
2363 4997
2364 2368
2364 2384
2364 2389
2364 2394
2364 4161
2365 2388
2365 2600
2365 2726
2365 4305
2366 2368
2366 2382
2366 3219
2366 3518
2366 4130
2367 2370
2367 2384
2367 2389
2367 2612
2367 3317
2368 2384
2368 2395
2368 3900
2368 4117
2369 2389
2369 2394
2369 2396
2369 3741
2370 2379
2370 2383
2370 2390
2370 2397
2370 3471
2370 4818
2371 2383
2371 2384
2371 2514
2371 3726
2372 2379
2372 2393
2372 3239
2372 3584
2373 2375
2373 2385
2373 2387
2373 2988
2373 4624
2373 4712
2374 2382
2375 2377
2375 2393
2375 2397
2375 2482
2375 2821
2375 2852
2375 3121
2375 3724
2375 3812
2376 2382
2377 2390
2377 2758
2377 2901
2377 3883
2377 4177
2378 2385
2378 2389
2378 2393
2378 3760
2379 2537
2379 3769
2379 4383
2380 2388
2380 3919
2381 2395
2382 2392
2382 3010
2383 2384
2383 2396
2383 2397
2383 2597
2383 2921
2383 2950
2383 3792
2383 4207
2383 4400
2384 2396
2385 2654
2385 4056
2386 2394
2386 2395
2386 2904
2386 3000
2387 4124
2387 4934
2388 2392
2388 2397
2388 4256
2388 4429
2388 4823
2389 2698
2389 3484
2390 3686
2390 3756
2391 2902
2391 2960
2392 3607
2393 2397
2393 2909
2393 4176
2393 4379
2393 4446
2394 2395
2394 2747
2394 4485
2394 4493
2395 3337
2395 3435
2396 2499
2397 2885
2397 3059
2398 2399
2398 2869
2398 2958
2398 4605
2399 2462
2399 2526
2399 3512
2399 3533
2400 2443
2400 3158
2400 3619
2400 3965
2400 4009
2400 4163
2401 2406
2401 2407
2401 2419
2401 2426
2401 2441
2401 2443
2401 2444
2401 3586
2401 4121
2402 2413
2402 2417
2402 2430
2402 2446
2402 2448
2402 2994
2402 4801
2402 4869
2403 2416
2403 2420
2403 2442
2403 2443
2403 3247
2403 4263
2404 2417
2404 2420
2404 2428
2404 2441
2404 2448
2404 3244
2405 2406
2405 2415
2405 2420
2405 2427
2405 2433
2405 2448
2405 3241
2405 3280
2405 4122
2406 2429
2406 2631
2406 3021
2406 3339
2407 2415
2407 2421
2407 2435
2407 2441
2407 2444
2407 3139
2408 2413
2408 2419
2408 2435
2408 2447
2408 2499
2408 2529
2408 4912
2409 2413
2409 4326
2410 2419
2410 2421
2410 2430
2410 2431
2410 2470
2410 3948
2411 2419
2411 2422
2411 2427
2411 2438
2411 2441
2411 2990
2411 3546
2411 3766
2411 4380
2411 4555
2412 2439
2412 2447
2412 3197
2412 3249
2412 3991
2413 2423
2413 2445
2413 2448
2413 2578
2413 2666
2413 4169
2413 4711
2414 2415
2414 2436
2414 2437
2414 2546
2414 3604
2414 4358
2416 2431
2416 2432
2416 2436
2416 2440
2416 3137
2416 3200
2416 3279
2417 2423
2417 2428
2417 2430
2417 2433
2417 2444
2417 2445
2417 3241
2417 4223
2418 2425
2418 2431
2418 4139
2418 4430
2419 2428
2419 2432
2419 2438
2419 2440
2419 3792
2420 2426
2420 2429
2420 2440
2420 3082
2420 4068
2421 2424
2421 2428
2421 2429
2421 2432
2421 2806
2421 2809
2421 4149
2421 4616
2421 4945
2422 2426
2422 2442
2423 2424
2423 2431
2423 2434
2423 2435
2423 2445
2423 2449
2423 2938
2423 3397
2423 4615
2424 2433
2424 2435
2424 2448
2424 3731
2424 3941
2424 4769
2424 4861
2425 2428
2425 2429
2425 2442
2425 4183
2426 3616
2426 3867
2426 4489
2427 2439
2427 2446
2427 2448
2428 2436
2428 2438
2428 2500
2428 2760
2428 3347
2429 2441
2429 2449
2429 3983
2430 2448
2430 2601
2430 3859
2431 2440
2431 2810
2431 3692
2431 3835
2431 4269
2432 2835
2432 4166
2432 4828
2433 2437
2433 4455
2434 2437
2434 2445
2435 2443
2435 3939
2435 4323
2435 4496
2436 2439
2436 2442
2436 4893
2436 4962
2437 2447
2437 2501
2437 4065
2437 4600
2438 2445
2438 2506
2438 2973
2438 4757
2439 3236
2441 2682
2441 3974
2441 4887
2442 2448
2442 4681
2443 4569
2444 3986
2445 2471
2445 3314
2446 2447
2446 2449
2446 2636
2446 3123
2446 3144
2446 4773
2447 2982
2447 4372
2447 4388
2448 2835
2448 4226
2448 4331
2448 4538
2448 4723
2448 4728
2449 2492
2449 4860
2450 2463
2450 2470
2450 2478
2450 2483
2450 2724
2450 3305
2451 2457
2451 2464
2451 2478
2451 2498
2451 2499
2451 3330
2451 3829
2451 4632
2451 4954
2452 2457
2452 2474
2452 2475
2452 2486
2452 2496
2453 2465
2453 2472
2453 2475
2453 2479
2453 2499
2454 2476
2454 2487
2454 2491
2455 2457
2455 2474
2455 2853
2455 3050
2455 3278
2455 4027
2456 2461
2456 2490
2456 2491
2456 2495
2456 3190
2456 3976
2456 4852
2457 2458
2457 2478
2457 2479
2457 2486
2457 2490
2457 4440
2457 4896
2458 2462
2458 2481
2458 2488
2458 2975
2458 3678
2458 4966
2459 2470
2459 2471
2459 2472
2459 2479
2459 2490
2459 2493
2459 2707
2459 3172
2459 4595
2459 4712
2459 4975
2460 2463
2460 2472
2460 2476
2460 2489
2460 2494
2460 2499
2460 4613
2461 2467
2461 2476
2461 2497
2461 2498
2462 2466
2462 2486
2462 2498
2462 2874
2462 2987
2462 3413
2462 3787
2462 3791
2462 3975
2463 2475
2463 2483
2463 2493
2463 3720
2463 4318
2463 4616
2464 2467
2464 2480
2464 2481
2464 2486
2464 4718
2464 4825
2464 4923
2465 2735
2465 3694
2466 2473
2466 2474
2466 2479
2466 2484
2466 2486
2466 2769
2466 3685
2466 4412
2467 2472
2467 2476
2467 2478
2467 2484
2467 2488
2467 2492
2467 2822
2467 3107
2467 3323
2468 2469
2468 2477
2468 2489
2468 2490
2468 2757
2468 3313
2468 3807
2468 4052
2468 4961
2469 2489
2469 2873
2469 3473
2470 2485
2470 2732
2470 4478
2470 4651
2471 2477
2471 2479
2471 2488
2471 2493
2471 2916
2471 3402
2471 3839
2471 4394
2472 2481
2472 2487
2472 2491
2472 4447
2472 4738
2473 2479
2473 2497
2473 4415
2473 4820
2474 2482
2474 2489
2474 2490
2474 2494
2474 2603
2474 3589
2474 3781
2474 3941
2474 4737
2474 4955
2475 2481
2475 2488
2475 2492
2475 2592
2475 2897
2475 3978
2475 4423
2476 2479
2476 2492
2476 2494
2476 3315
2476 3571
2476 4009
2477 2485
2477 2489
2477 2491
2477 2492
2477 2498
2477 2576
2477 3566
2477 4322
2477 4364
2477 4634
2478 2479
2478 3628
2479 2481
2479 2493
2479 3780
2479 4016
2479 4591
2480 2494
2480 3397
2480 3494
2482 2497
2482 3687
2482 4017
2483 2864
2483 3738
2484 4674
2485 2490
2485 2948
2485 3134
2485 3418
2485 3503
2486 2496
2486 2498
2486 4199
2486 4661
2486 4776
2486 4970
2487 2491
2487 2494
2487 4680
2488 2802
2488 2970
2488 3489
2488 4297
2488 4453
2489 2494
2489 3493
2489 3522
2489 3837
2489 4333
2490 2731
2490 3777
2490 3920
2490 4407
2491 2966
2491 3737
2492 2498
2492 2746
2492 2889
2492 3239
2492 4108
2492 4475
2493 2547
2494 2497
2494 4371
2494 4785
2495 2496
2495 2578
2495 3085
2496 2841
2496 4325
2496 4588
2497 2499
2497 2506
2497 3546
2497 4013
2498 4765
2499 2971
2499 3196
2499 3437
2500 2546
2500 2660
2500 2704
2500 3946
2501 2510
2501 2522
2501 2527
2501 2544
2502 2505
2502 2524
2502 2527
2502 2529
2502 3062
2502 3837
2502 4252
2503 2546
2503 2549
2503 3711
2503 4586
2503 4973
2504 2507
2504 2522
2504 2525
2504 2536
2504 2537
2504 2912
2504 3152
2504 3213
2504 3324
2505 2531
2505 2547
2505 2784
2505 4650
2506 2510
2506 2519
2506 2521
2506 2522
2506 2523
2506 4051
2506 4170
2506 4386
2507 2525
2507 2539
2507 2540
2507 2544
2507 2935
2508 2515
2508 2526
2508 3224
2508 3457
2508 3658
2508 4127
2508 4133
2509 2512
2509 2522
2509 2627
2509 3320
2509 3931
2509 4032
2510 2538
2510 2544
2510 2577
2510 3388
2510 4032
2510 4122
2511 2523
2511 2528
2511 2529
2511 2539
2511 2542
2511 2543
2511 2548
2511 3182
2512 2536
2512 2545
2512 2547
2512 3322
2512 3649
2512 4191
2512 4979
2513 2520
2513 2522
2513 2535
2513 2545
2513 2547
2513 2548
2513 4294
2514 2522
2514 2540
2514 2542
2514 2545
2515 2544
2515 2548
2515 3126
2515 3740
2515 3993
2516 2524
2516 2544
2517 2546
2517 4944
2518 2539
2518 2540
2518 3033
2518 3065
2518 3471
2519 2528
2519 4921
2520 2535
2520 4836
2521 2526
2521 2530
2521 2533
2521 2543
2521 2664
2521 3015
2521 3466
2521 3559
2521 3570
2521 4687
2521 4737
2522 2536
2522 2548
2522 2549
2522 3723
2522 4847
2523 2528
2523 2535
2523 2541
2523 2551
2523 3374
2523 4816
2523 4951
2524 2687
2524 3609
2524 4391
2525 2534
2525 2543
2525 2978
2525 3651
2525 4735
2526 2532
2526 2534
2526 2535
2526 2544
2526 2547
2526 2548
2526 3272
2526 3721
2526 4295
2526 4646
2526 4711
2527 2536
2527 2898
2527 3583
2528 2532
2528 2541
2528 2544
2528 3446
2528 3950
2528 3952
2529 2530
2529 2536
2529 2546
2529 2549
2529 4807
2530 2542
2530 2643
2531 2538
2531 2540
2531 2549
2531 4563
2532 2542
2532 3643
2532 3986
2532 4551
2533 2534
2533 2538
2533 2683
2533 3842
2533 4175
2533 4435
2535 2542
2535 3563
2535 3689
2536 2543
2537 2538
2537 2542
2537 2546
2537 2698
2537 2878
2537 2986
2537 4426
2537 4585
2538 2539
2538 2543
2538 2821
2538 2980
2538 3072
2538 4990
2539 2540
2539 2654
2539 4491
2540 2545
2540 3093
2541 2940
2541 4861
2542 2544
2542 2897
2542 3202
2543 2547
2543 2548
2543 2549
2543 3431
2543 4064
2544 2622
2544 3162
2544 3811
2544 4349
2545 2709
2545 3431
2546 2549
2546 4687
2548 2571
2548 3233
2548 3239
2548 4260
2548 4331
2549 2953
2549 3654
2549 3684
2550 2563
2550 2567
2550 2583
2550 2585
2550 2594
2550 3106
2550 3502
2550 4168
2551 2564
2551 2571
2551 2578
2551 2580
2551 2581
2551 2585
2551 2595
2551 2610
2552 2562
2552 2565
2552 2578
2552 2789
2552 3082
2552 4932
2553 2555
2553 2568
2553 2579
2553 2591
2553 2599
2553 3351
2553 3497
2553 4006
2554 2569
2554 2578
2554 2584
2554 2591
2554 2598
2554 2839
2554 3007
2554 3563
2555 2569
2555 2575
2555 2595
2555 2597
2555 2756
2555 4988
2556 2560
2556 2570
2556 2583
2556 2584
2556 2598
2556 3061
2556 4436
2557 2560
2557 2579
2557 2587
2557 2597
2557 3811
2558 2569
2558 2572
2558 2716
2558 2980
2558 3946
2559 2562
2559 2565
2559 2566
2559 2578
2559 2585
2559 2589
2559 3772
2559 4265
2559 4651
2560 2567
2560 2584
2560 3416
2560 4152
2560 4344
2560 4601
2561 2579
2561 2593
2561 3079
2561 3611
2561 3723
2561 4125
2561 4703
2562 2565
2562 2580
2562 2770
2562 2962
2562 3429
2562 3713
2562 4960
2563 2564
2563 2566
2563 4068
2563 4575
2563 4598
2564 2577
2564 2579
2564 2864
2564 4265
2565 2567
2565 2589
2565 2995
2565 3815
2565 3820
2565 4539
2565 4617
2566 2567
2566 2568
2566 2575
2566 2578
2566 2579
2566 2583
2566 2595
2566 4618
2567 2582
2567 2585
2568 2579
2568 3964
2568 4264
2569 2573
2569 2583
2569 2915
2569 3873
2569 4654
2570 2571
2570 2580
2570 2583
2570 2701
2570 2850
2570 3676
2570 4718
2571 2585
2571 2586
2571 2590
2571 2721
2571 3628
2571 4010
2571 4522
2572 2584
2572 2679
2572 3163
2572 3652
2572 4704
2573 2578
2573 2583
2573 2600
2573 3472
2573 4155
2573 4937
2574 4729
2575 2587
2575 2588
2575 2590
2575 3467
2575 4323
2576 2597
2576 3398
2576 4596
2576 4810
2577 2580
2577 2585
2577 2589
2577 3604
2577 4179
2578 2583
2578 2590
2578 2594
2578 3867
2579 2582
2579 2586
2579 2588
2579 2590
2579 2593
2579 2737
2579 3019
2579 4108
2580 2592
2580 2598
2580 3695
2580 4925
2581 2582
2581 4364
2582 2583
2582 2588
2582 3490
2582 4301
2583 2588
2584 2592
2584 2593
2584 2596
2584 2599
2584 3254
2585 2591
2585 4169
2586 2592
2586 2598
2586 3083
2586 3768
2586 4131
2587 3190
2587 4430
2587 4760
2587 4804
2588 2589
2588 2590
2588 3606
2588 4347
2588 4855
2589 2598
2589 2660
2589 3742
2590 2638
2590 3632
2590 4746
2590 4790
2591 2592
2591 2749
2592 2594
2592 3517
2593 3172
2593 4388
2594 3187
2595 2599
2595 2610
2595 3894
2595 4084
2596 2755
2596 4911
2597 2711
2597 3140
2597 3518
2597 4108
2598 3327
2598 4634
2599 4292
2599 4333
2600 2606
2600 2607
2600 2608
2600 2617
2600 2624
2600 2627
2600 2628
2600 2637
2600 2639
2600 2645
2600 2648
2600 2766
2600 4382
2600 4386
2601 2604
2601 2613
2601 2632
2601 2643
2601 2644
2601 4219
2601 4650
2602 2611
2602 2617
2602 2628
2602 2630
2602 2642
2602 2646
2602 3026
2602 3528
2603 2606
2603 2610
2603 2615
2603 2621
2603 2638
2603 2640
2603 3741
2603 3943
2603 4534
2603 4572
2604 2620
2604 2623
2604 2634
2604 2643
2604 2838
2604 3340
2604 3502
2604 3684
2605 2628
2605 3284
2605 4033
2605 4248
2605 4619
2606 2615
2606 2626
2606 2630
2606 2632
2606 2637
2606 3106
2606 3666
2607 2615
2607 2629
2607 3629
2608 2612
2608 2628
2608 2640
2608 2644
2608 2791
2608 3631
2608 4531
2608 4817
2609 2618
2609 2626
2609 2649
2609 2662
2609 4757
2609 4851
2610 2614
2610 2624
2610 2634
2610 2635
2610 2637
2610 2640
2610 2643
2610 2648
2610 2875
2610 2913
2610 3728
2611 2626
2611 2646
2611 2647
2611 2874
2612 2631
2612 2632
2612 2639
2612 3478
2612 3821
2612 4111
2612 4712
2613 2639
2613 2645
2613 4198
2613 4634
2613 4893
2614 2619
2614 2634
2614 3840
2614 3964
2614 4227
2614 4910
2615 2623
2615 2630
2615 2634
2615 2649
2615 2793
2615 3449
2616 2618
2616 2623
2616 2627
2616 2639
2616 2649
2616 3237
2616 4612
2617 2645
2617 4221
2617 4912
2618 2639
2618 2646
2618 3211
2618 3354
2618 3360
2618 3834
2618 4709
2618 4811
2619 2628
2619 2640
2619 2641
2619 2642
2620 2630
2620 2647
2620 3631
2620 4745
2620 4846
2621 2623
2621 2633
2621 2637
2621 2645
2621 2648
2621 2670
2621 2721
2621 3008
2621 4983
2622 2629
2622 2631
2622 2649
2622 4399
2622 4677
2623 2630
2623 2631
2623 2644
2623 2648
2623 3421
2623 3792
2624 2630
2624 2635
2624 2639
2624 4440
2625 2626
2625 2630
2625 2631
2625 2645
2625 2646
2625 3573
2625 4379
2626 2646
2626 4244
2626 4270
2627 2630
2627 2646
2627 2648
2628 2648
2628 3182
2628 4468
2629 2647
2629 4576
2630 2644
2630 2647
2630 2871
2630 3364
2631 2638
2631 2641
2631 2642
2631 2644
2631 2646
2631 3229
2631 4931
2631 4992
2632 2636
2632 2642
2632 2649
2632 3838
2632 4530
2633 2916
2633 3399
2633 3799
2633 4813
2634 2639
2634 2643
2634 3468
2634 3686
2634 3940
2634 3984
2635 2638
2635 2642
2635 3228
2635 3996
2636 4289
2637 2643
2637 3846
2637 3854
2637 4514
2637 4817
2638 2646
2638 2648
2639 2648
2640 3091
2640 4527
2641 2647
2641 3692
2641 4181
2642 2689
2642 3231
2642 4119
2642 4467
2643 2646
2643 2647
2643 2648
2643 2649
2643 2736
2643 3749
2643 3921
2643 3932
2643 4331
2643 4438
2643 4508
2643 4983
2644 2647
2644 3231
2644 3511
2645 3180
2645 4514
2646 2648
2646 2974
2646 3805
2646 4839
2647 4756
2648 3959
2648 4481
2649 2755
2649 3112
2649 3169
2650 2652
2650 2662
2650 2679
2650 2688
2650 2693
2650 2699
2650 4342
2650 4789
2651 2662
2651 2664
2651 2666
2651 2684
2651 2696
2651 3842
2651 4882
2652 2662
2652 2693
2652 3607
2652 3982
2653 2656
2653 2663
2653 2667
2653 2668
2653 2677
2653 2692
2653 2696
2653 4245
2653 4397
2654 2660
2654 2675
2654 2821
2654 3332
2655 2658
2655 2674
2655 2691
2655 2692
2655 2697
2655 2854
2655 4569
2656 2661
2656 2692
2656 2698
2656 3366
2656 3795
2656 3858
2656 4655
2656 4766
2657 2684
2657 2693
2657 3154
2657 4708
2658 2671
2658 2680
2658 2793
2658 3454
2659 2662
2659 2678
2659 2681
2659 3755
2660 2666
2660 2679
2660 2687
2660 2693
2660 2695
2661 2664
2661 2669
2661 2687
2661 2689
2661 4499
2662 2674
2662 3123
2662 3470
2663 2675
2663 2680
2663 2691
2663 2694
2663 2941
2663 3367
2663 3563
2663 3965
2663 4703
2664 2671
2664 2680
2664 3164
2664 3977
2664 4795
2665 2685
2665 3294
2665 3559
2665 3638
2665 4304
2665 4918
2666 2685
2666 2688
2666 2692
2667 2671
2667 2672
2667 2679
2667 2692
2667 2697
2667 4601
2668 2694
2668 3687
2668 3705
2669 2682
2669 2688
2669 2689
2669 3205
2670 2673
2670 2680
2670 2684
2670 2686
2670 2695
2670 2932
2670 3413
2670 3534
2670 3885
2671 2677
2671 2682
2671 2689
2671 2698
2671 3725
2671 4629
2671 4805
2672 2684
2672 3220
2672 3733
2672 4486
2673 2676
2673 2763
2673 3421
2673 4563
2673 4968
2674 2679
2674 2690
2674 2693
2674 2694
2674 2698
2674 2714
2674 2854
2674 3407
2675 2676
2675 2680
2675 2682
2675 2688
2675 2694
2675 2699
2676 2677
2676 2694
2676 4703
2677 2682
2677 2683
2677 2697
2677 2699
2677 2826
2677 3629
2677 4084
2677 4926
2678 2694
2678 3299
2679 2682
2679 2684
2679 2688
2679 2690
2679 2698
2679 3046
2679 3381
2679 4029
2679 4666
2680 2693
2680 3140
2680 4685
2681 2687
2681 2739
2681 4369
2682 2690
2682 3713
2682 4810
2683 2993
2683 3049
2683 3169
2683 3618
2683 4780
2684 2685
2684 2690
2684 2691
2684 2696
2684 3154
2684 3884
2684 4456
2685 2686
2685 3835
2686 2828
2686 3166
2686 3849
2686 4590
2687 2766
2687 2783
2687 2807
2687 4285
2687 4468
2688 2693
2688 2698
2688 2753
2688 3712
2688 4677
2688 4689
2689 2690
2689 2696
2689 2797
2689 3094
2689 3794
2690 2696
2690 2838
2690 2972
2690 4204
2691 2699
2692 3830
2693 2697
2693 4732
2693 4870
2694 2699
2694 2837
2694 2887
2694 3074
2694 3693
2694 3823
2694 4657
2695 2699
2695 3681
2695 3842
2695 4734
2696 3280
2696 3672
2696 4116
2696 4170
2697 3040
2697 3354
2697 4471
2698 3117
2698 3211
2698 4707
2698 4855
2699 3447
2699 3834
2699 4309
2700 2710
2700 2716
2700 2721
2700 2729
2700 3314
2700 3465
2700 4935
2701 2715
2701 2728
2701 3004
2701 3570
2701 3684
2701 4258
2702 2711
2702 2712
2702 2719
2702 2732
2702 2740
2702 2742
2702 2745
2702 2810
2702 3101
2702 4662
2703 2748
2703 4736
2703 4802
2704 2714
2704 2734
2704 2743
2704 2746
2704 3219
2704 4087
2704 4408
2705 2714
2705 2717
2705 2725
2705 3251
2706 2708
2706 2714
2706 2717
2706 2727
2706 3516
2706 3848
2706 4709
2707 2728
2707 2738
2707 2785
2707 3777
2708 2734
2708 3603
2709 2712
2709 2715
2709 2726
2709 2739
2709 2745
2709 2746
2709 2747
2709 2748
2709 3820
2710 2712
2710 2716
2710 2720
2710 2727
2710 2744
2710 2749
2711 2712
2711 2722
2711 2731
2711 3676
2711 3731
2711 4798
2712 2720
2712 2745
2712 4360
2713 2716
2713 2718
2713 3863
2714 2734
2714 2737
2714 2994
2714 4887
2714 4910
2715 2724
2715 2733
2715 2736
2715 3501
2715 3535
2715 4831
2715 4952
2716 2737
2716 2747
2716 3189
2716 3293
2716 3570
2716 4219
2716 4728
2717 2728
2717 2731
2717 2738
2717 2746
2717 4925
2718 2730
2718 2738
2718 3065
2719 2725
2719 4376
2720 2729
2720 2733
2720 3347
2721 2807
2721 4819
2722 2723
2722 2737
2722 2738
2722 2739
2722 2742
2723 2739
2723 2743
2723 2746
2723 4520
2723 4583
2724 2732
2724 2745
2724 4442
2724 4986
2725 2742
2725 2748
2725 2848
2725 3618
2725 4549
2726 2728
2726 2732
2726 2737
2726 2740
2726 2741
2726 2744
2726 2747
2726 2886
2726 3979
2726 4035
2727 2728
2727 2731
2727 2733
2727 2748
2727 2801
2728 2729
2728 2745
2728 2749
2728 4561
2728 4997
2729 2743
2729 3562
2730 2732
2730 2733
2730 2735
2730 2741
2730 2852
2730 3002
2730 3191
2730 4125
2730 4461
2731 2745
2731 2928
2731 2949
2731 4020
2731 4027
2732 2737
2732 2743
2732 2746
2732 3292
2732 3552
2733 2737
2733 4033
2734 4878
2735 2740
2735 2743
2735 2747
2735 2960
2735 3309
2735 4633
2735 4887
2736 4342
2737 2741
2737 2743
2737 2748
2737 2836
2737 3245
2737 3963
2737 4024
2737 4752
2738 2743
2738 3164
2738 3491
2738 3492
2738 3872
2739 2744
2739 3528
2740 2970
2740 3124
2740 4110
2740 4838
2741 2742
2741 2744
2741 4075
2741 4566
2742 2744
2742 2944
2742 3971
2743 2748
2743 3793
2743 4036
2743 4207
2744 3751
2745 3246
2745 4524
2745 4672
2746 2748
2746 3031
2746 4088
2746 4154
2747 2896
2748 3049
2749 3411
2750 2752
2750 2755
2750 2759
2750 2764
2750 2773
2750 2775
2750 2778
2750 2783
2750 2794
2750 2796
2750 2797
2750 3282
2751 2759
2751 2762
2751 2766
2751 2769
2751 2780
2751 2788
2751 3201
2751 4504
2752 2756
2752 2757
2752 2761
2752 2772
2752 2778
2752 2789
2752 2795
2752 4227
2752 4273
2753 2754
2753 2761
2753 2762
2753 2787
2753 2790
2753 3094
2754 2768
2754 2775
2754 2782
2754 2790
2754 2793
2754 3583
2754 4313
2754 4671
2755 2765
2755 2781
2755 2782
2755 2799
2755 3443
2755 3639
2755 3811
2755 4180
2756 2763
2756 2771
2756 2797
2756 3612
2756 4160
2756 4506
2757 2767
2757 4961
2758 2771
2758 2775
2758 2776
2758 2778
2758 2779
2758 2791
2758 2795
2758 2799
2758 3002
2758 3551
2758 4268
2759 2765
2759 2775
2759 2788
2759 2877
2759 3040
2759 4314
2759 4324
2760 2764
2760 2773
2760 2792
2760 3172
2761 2762
2761 2763
2761 2764
2761 2766
2761 2794
2761 2799
2761 3157
2762 2774
2762 2784
2763 2764
2763 2777
2763 2780
2763 3927
2764 2767
2764 2780
2764 2785
2764 2788
2764 2792
2764 3138
2764 3139
2765 2798
2765 3590
2765 4179
2766 2769
2766 2787
2766 2797
2767 2773
2767 2794
2767 2795
2767 2796
2767 3092
2767 3934
2767 4684
2768 2778
2768 2780
2768 2781
2768 3586
2768 3715
2768 4441
2768 4650
2769 3198
2769 3456
2769 4949
2770 2771
2770 2794
2771 2775
2771 2786
2771 2788
2771 2793
2771 4186
2772 3823
2772 3899
2772 4831
2773 2787
2774 3783
2775 2778
2775 2781
2775 2793
2775 3801
2775 4598
2776 2780
2776 2782
2776 2785
2776 2790
2776 2799
2776 3968
2776 4460
2777 2794
2777 2797
2777 3422
2777 4924
2778 2782
2778 4505
2779 2790
2780 2789
2780 2797
2780 4439
2780 4614
2781 2788
2781 2792
2781 3833
2781 4723
2782 2783
2782 2784
2782 3847
2782 4789
2783 2796
2783 3274
2783 3323
2784 2797
2784 2799
2784 3502
2784 4500
2785 2796
2785 2803
2785 3057
2785 3970
2785 4270
2785 4658
2785 4672
2786 2791
2786 2930
2786 3214
2786 3381
2787 3464
2788 4667
2789 2790
2789 3803
2789 4511
2789 4665
2790 2796
2791 3278
2792 3753
2792 4945
2793 2799
2793 2852
2794 2795
2794 4020
2794 4453
2794 4771
2795 3390
2795 3762
2795 4806
2796 2798
2796 3221
2796 4685
2797 4224
2798 4605
2798 4880
2799 3973
2800 2806
2800 2834
2800 2835
2800 2844
2800 2848
2801 2811
2801 2815
2801 2818
2801 2823
2801 3030
2801 3915
2801 4551
2802 2823
2802 2835
2802 3968
2803 2806
2803 2818
2803 2819
2803 2820
2803 2831
2803 3088
2803 3900
2803 4573
2804 2813
2804 2835
2804 3629
2804 3987
2805 2809
2805 2827
2805 2837
2805 2839
2805 3512
2805 3790
2805 3923
2805 4146
2806 2811
2806 2831
2806 2848
2806 4122
2807 2813
2807 2814
2807 2836
2807 2837
2807 2839
2807 2847
2807 2848
2807 2996
2808 2809
2808 2810
2808 2819
2808 2821
2808 2839
2808 3190
2808 4380
2809 2813
2809 2815
2809 2824
2809 2827
2809 2838
2809 2839
2809 3865
2809 4347
2809 4542
2809 4722
2810 2819
2810 2828
2810 2830
2811 2830
2811 2843
2811 3137
2811 4048
2812 2814
2812 2820
2812 2828
2812 2836
2812 3415
2812 3533
2812 4934
2813 2815
2813 2816
2813 2835
2813 4124
2813 4192
2813 4506
2814 2821
2814 2823
2814 2831
2814 2837
2814 2839
2814 2842
2814 4884
2815 2817
2815 2833
2815 2837
2815 3771
2815 3924
2815 4288
2816 2840
2816 2842
2817 2818
2817 2824
2817 2846
2817 2847
2817 3623
2817 3716
2817 3817
2817 4260
2818 2829
2818 3037
2819 2820
2819 2821
2819 2831
2819 3963
2820 2822
2820 2843
2820 2844
2820 3111
2820 3686
2821 2838
2821 3037
2821 4480
2821 4486
2821 4738
2821 4771
2822 2834
2822 3902
2822 4042
2822 4668
2822 4890
2823 2829
2823 2830
2823 2837
2823 3178
2823 3886
2823 4294
2824 2831
2824 2846
2824 3276
2824 3476
2824 3593
2824 4250
2824 4995
2825 2829
2825 2849
2825 3641
2825 3761
2825 3958
2826 2827
2826 2844
2826 3615
2826 3805
2826 4358
2826 4616
2826 4767
2827 2832
2827 2841
2827 2847
2827 3363
2827 3860
2828 2829
2828 2839
2828 3139
2828 4730
2828 4755
2829 2834
2829 3116
2830 2844
2830 4684
2830 4909
2831 2837
2831 2840
2831 3194
2831 3578
2832 2839
2832 2841
2832 2844
2832 2845
2832 2849
2832 3196
2833 3553
2834 2838
2834 3417
2835 2838
2835 2849
2835 3210
2836 2842
2836 2844
2836 3801
2836 4390
2836 4740
2837 2842
2838 3673
2838 4416
2839 2840
2839 4841
2840 4144
2841 2848
2841 2849
2841 3294
2841 3901
2841 4381
2842 3897
2843 3442
2843 3600
2843 3902
2844 2849
2845 4258
2846 2847
2846 2864
2846 4032
2846 4156
2846 4896
2847 2849
2847 2958
2848 3876
2849 3009
2849 4532
2849 4778
2850 2851
2850 2852
2850 2853
2850 2868
2850 2883
2850 2886
2850 3786
2851 2856
2851 2889
2851 2894
2851 2897
2851 4117
2851 4429
2851 4480
2852 2854
2852 2855
2852 2883
2852 2885
2852 2891
2852 2899
2852 3871
2852 4785
2853 2883
2853 2890
2853 2892
2853 4529
2853 4774
2854 2893
2854 2894
2854 4182
2854 4318
2854 4832
2855 2865
2855 2885
2855 2886
2855 2892
2855 2893
2855 3058
2855 3177
2855 4115
2856 2859
2856 2861
2856 2869
2856 2881
2856 2883
2856 2885
2856 2899
2856 3554
2857 2859
2857 2886
2857 2893
2857 3195
2857 3533
2857 4318
2858 2870
2858 2876
2858 2880
2859 2883
2859 2886
2859 3830
2859 3896
2860 2884
2860 2886
2860 2894
2861 2869
2861 2878
2861 2888
2861 2889
2861 2891
2861 2895
2861 3247
2861 4734
2862 2868
2862 2883
2862 2893
2862 3093
2863 2867
2863 2870
2863 2885
2863 2896
2863 2898
2863 3375
2863 3402
2863 4397
2864 2872
2864 2890
2864 2897
2864 4440
2865 2878
2865 2896
2865 3603
2865 4523
2866 2871
2866 2879
2866 2880
2867 3326
2867 3455
2868 2874
2868 2884
2868 2896
2868 2899
2868 3752
2868 4849
2869 3137
2869 4570
2870 2871
2870 2882
2870 2883
2870 2897
2870 3047
2871 2875
2871 2876
2871 2897
2871 4524
2871 4538
2872 2880
2872 2893
2872 4468
2873 2874
2873 2886
2873 2936
2873 3796
2873 3940
2873 4147
2873 4681
2874 2895
2874 3342
2875 2884
2875 2888
2875 2889
2875 3143
2875 3258
2875 4214
2876 2879
2876 2885
2876 2897
2876 2898
2876 3193
2876 3838
2877 2880
2877 2889
2877 3109
2877 3949
2878 2899
2879 2888
2879 2889
2879 2892
2879 3555
2879 3703
2879 4022
2879 4983
2880 2887
2880 3699
2880 4933
2881 2886
2881 2894
2881 2896
2881 2897
2881 3486
2881 3642
2881 4025
2882 2886
2882 2896
2882 3960
2883 2892
2883 3018
2883 3712
2883 4313
2884 2885
2884 2896
2885 2892
2885 3532
2886 2889
2886 2894
2886 3634
2887 3461
2888 4353
2888 4354
2888 4910
2889 2893
2889 2897
2889 4950
2891 4768
2892 2893
2892 2894
2892 3391
2892 4329
2892 4424
2892 4602
2893 3023
2893 3544
2893 3559
2893 4032
2893 4634
2893 4832
2894 3291
2894 4105
2894 4701
2895 2898
2895 3286
2895 3292
2895 3338
2895 3755
2895 4054
2895 4323
2897 4088
2897 4765
2899 3115
2899 3409
2899 3643
2899 4517
2899 4954
2900 2914
2900 2919
2900 2921
2900 2923
2900 2942
2900 2944
2900 3168
2900 4424
2901 2906
2901 2909
2901 2914
2901 2934
2901 2938
2901 2939
2901 2945
2901 2947
2901 3981
2902 2908
2902 2930
2902 2939
2902 2941
2902 4220
2903 2910
2903 2915
2903 2934
2903 2937
2903 2940
2903 2949
2903 4408
2904 2917
2904 2920
2904 2946
2904 3822
2904 4655
2905 2908
2905 2909
2905 2912
2905 2915
2905 2919
2905 2932
2905 2935
2905 2942
2905 2947
2905 3873
2905 4155
2906 2911
2906 2912
2906 2938
2906 2944
2906 2949
2907 2908
2907 2910
2907 2930
2907 2941
2907 3584
2907 3801
2907 4822
2908 2925
2908 2926
2908 2927
2908 2945
2908 3556
2908 3884
2908 4560
2908 4585
2908 4699
2908 4877
2909 2911
2909 2917
2909 2925
2909 2930
2909 2936
2909 2949
2910 2926
2910 2943
2910 3305
2910 3481
2910 3879
2910 4627
2911 2916
2911 2923
2911 2935
2911 2946
2911 3050
2911 4975
2912 2913
2912 2917
2912 2934
2912 2935
2912 2938
2912 3931
2912 4617
2912 4886
2913 2921
2913 2930
2913 2946
2913 3834
2913 4505
2913 4583
2914 2926
2914 2935
2914 2946
2914 3124
2914 3155
2914 3475
2914 4323
2914 4777
2915 2928
2915 2936
2915 3892
2915 3976
2915 4934
2916 2917
2916 2921
2916 2932
2916 2943
2916 3544
2916 4335
2916 4350
2916 4480
2916 4685
2917 2920
2917 2928
2917 2935
2917 3673
2918 2921
2918 2937
2918 2938
2919 2926
2919 3144
2919 3588
2920 2929
2920 2932
2920 3255
2921 2926
2921 2929
2921 2938
2921 2941
2921 3328
2922 2929
2922 2931
2922 2935
2922 2939
2922 2940
2922 2943
2922 2944
2922 3861
2922 4129
2922 4596
2922 4663
2923 2932
2923 2940
2923 2945
2923 3723
2924 2926
2924 2930
2924 4169
2924 4895
2925 2928
2925 2942
2925 2958
2925 3622
2925 3849
2925 4978
2926 2932
2926 4541
2927 2928
2927 2933
2927 2937
2927 2940
2927 3367
2927 4125
2927 4958
2928 2929
2928 2939
2928 2942
2928 3262
2928 4186
2928 4988
2929 2940
2929 3369
2929 4412
2929 4745
2930 2945
2930 2947
2930 2949
2930 3028
2930 3127
2930 4068
2931 4121
2932 2989
2932 3604
2932 3698
2932 3788
2932 4103
2933 2947
2933 3251
2933 3876
2934 2942
2934 2948
2934 4762
2935 2945
2935 2949
2935 4392
2935 4968
2936 2940
2936 3566
2936 4652
2936 4835
2937 3100
2937 3787
2937 3958
2937 4599
2937 4907
2938 2939
2938 3069
2938 3656
2938 4541
2938 4914
2938 4995
2939 3025
2939 3786
2939 4532
2940 2946
2940 3043
2940 3322
2940 3541
2940 3546
2940 4287
2941 2942
2941 3879
2941 4715
2942 2944
2942 3229
2942 4746
2943 3387
2943 4225
2944 4407
2944 4429
2944 4874
2945 2949
2946 2948
2947 4509
2948 3430
2948 4670
2948 4828
2949 3470
2949 3567
2949 4059
2949 4476
2949 4668
2950 2957
2950 2977
2950 2983
2950 2992
2950 4770
2951 2955
2951 2963
2951 2968
2951 2975
2951 2988
2951 2997
2951 4422
2952 2960
2952 2966
2952 2971
2952 2978
2952 2986
2952 2988
2952 2989
2952 2991
2952 2996
2952 4462
2953 2957
2953 2975
2953 2978
2953 2979
2953 2982
2953 2991
2953 2999
2953 3258
2953 3559
2954 2955
2954 2975
2954 2977
2954 2985
2954 2989
2954 2994
2954 3733
2954 4997
2955 2961
2955 2974
2955 2976
2955 3152
2955 4135
2955 4150
2955 4352
2955 4834
2956 2966
2956 2974
2956 2975
2956 2978
2957 2975
2957 2979
2957 2984
2957 2996
2957 4072
2957 4955
2958 2962
2958 2992
2958 3244
2958 3444
2958 4351
2959 2964
2959 2965
2959 2975
2959 2976
2960 2964
2960 2992
2960 3996
2960 4220
2961 2974
2961 2981
2961 3438
2961 3693
2962 2963
2962 2966
2962 2968
2962 2983
2962 2987
2962 3564
2963 2968
2963 2994
2963 4449
2963 4782
2964 2973
2964 2995
2964 3464
2964 4113
2965 2967
2965 2968
2965 2984
2965 2988
2965 3175
2965 4668
2966 2973
2966 3464
2966 4984
2967 2985
2967 2993
2968 2969
2968 2976
2968 2977
2968 2992
2968 2994
2968 3181
2968 3875
2968 4031
2969 2977
2969 2984
2969 2989
2969 2992
2969 4015
2970 2973
2970 2979
2970 2980
2970 3323
2970 3350
2970 3525
2970 3610
2970 4430
2971 2978
2971 2979
2971 4038
2971 4819
2972 2974
2972 2985
2972 2988
2972 2992
2972 3247
2972 3251
2972 3281
2972 3501
2972 3651
2972 3753
2972 4189
2972 4480
2973 2974
2973 2978
2973 2982
2973 2991
2973 3670
2974 2992
2974 3562
2975 2978
2975 2989
2975 2990
2975 3147
2975 3876
2975 4661
2975 4968
2976 2981
2976 2984
2976 2986
2976 2992
2976 4255
2976 4734
2977 2986
2977 2993
2977 2997
2977 4311
2978 2985
2978 2987
2978 2999
2978 3180
2978 4143
2978 4250
2979 2989
2979 2999
2979 3212
2979 3228
2979 3906
2979 4068
2980 2997
2980 3123
2980 3208
2980 3679
2980 4974
2981 3088
2981 3852
2981 3872
2981 4090
2981 4348
2981 4962
2982 3839
2982 3940
2983 2994
2983 4025
2983 4358
2984 2985
2984 2986
2984 3866
2984 4300
2985 2992
2985 2993
2985 2998
2985 3005
2985 4852
2986 2997
2986 3273
2986 3446
2986 4597
2987 2991
2987 2994
2987 2998
2987 3311
2987 4499
2988 2994
2988 3681
2988 3832
2989 3507
2990 2991
2990 2998
2990 4120
2990 4678
2991 4105
2992 2995
2992 4222
2992 4475
2993 3099
2993 3266
2993 3609
2996 3327
2996 3954
2997 3796
2997 4812
2998 3637
2999 3659
2999 4594
3000 3011
3000 3012
3000 3013
3000 3015
3000 3017
3000 3019
3000 3025
3000 3039
3000 3045
3000 4005
3000 4025
3001 3004
3001 3013
3001 3020
3001 3021
3001 3035
3001 3036
3001 3039
3001 3049
3001 3885
3001 3898
3002 3003
3002 3005
3002 3006
3002 3007
3002 3017
3002 3019
3002 3028
3002 3045
3002 3102
3002 4041
3003 3008
3003 3010
3003 3019
3003 3023
3003 3034
3003 3039
3003 3049
3003 3226
3003 3426
3003 4303
3003 4947
3003 4991
3004 3012
3004 3027
3004 3030
3004 3033
3004 3824
3004 4907
3005 3022
3005 3034
3005 3730
3006 3007
3006 3011
3006 3031
3006 3041
3006 3255
3006 3610
3007 3010
3007 3014
3007 3016
3007 3022
3007 3028
3007 3542
3007 4137
3007 4214
3007 4721
3008 3010
3008 3033
3008 3498
3008 4073
3008 4579
3009 3018
3009 3019
3009 3025
3009 3029
3009 3043
3009 3305
3009 4115
3009 4303
3010 3042
3010 3043
3010 3049
3010 4612
3010 4638
3011 3018
3011 3024
3011 3041
3011 3044
3011 3049
3011 3659
3011 3931
3012 3017
3012 3032
3012 3036
3012 3358
3012 3739
3013 3015
3013 3022
3013 3043
3013 3988
3013 3992
3013 4777
3014 3041
3014 3047
3015 3022
3015 3024
3015 3043
3015 3254
3015 3690
3015 4937
3016 3033
3016 3355
3016 3787
3017 3018
3017 3035
3017 3039
3017 3040
3017 3048
3017 3802
3018 3043
3018 3314
3018 4211
3018 4645
3019 3026
3019 3043
3019 3044
3019 3256
3019 4333
3019 4956
3020 3029
3020 3044
3020 3048
3020 4220
3020 4616
3021 3029
3021 3622
3021 4031
3022 3417
3022 3717
3023 3035
3023 3036
3023 3281
3023 3421
3023 3577
3024 3034
3024 3036
3024 3043
3024 3044
3024 3048
3024 3792
3025 3031
3025 3038
3025 3075
3025 3348
3025 4530
3026 3030
3026 3040
3026 3048
3026 4226
3026 4269
3026 4381
3027 3039
3027 3048
3027 3357
3027 3443
3027 4103
3028 3033
3028 3035
3028 3865
3028 4206
3029 3030
3029 3041
3029 3043
3029 4603
3030 3031
3030 3032
3030 3045
3030 3977
3031 3034
3031 3037
3031 3239
3031 4015
3031 4247
3031 4281
3031 4402
3032 3035
3032 3040
3032 3047
3032 3049
3032 4646
3033 3035
3033 3046
3034 3046
3034 4405
3035 3521
3035 4138
3036 3048
3036 3049
3036 3118
3036 4643
3037 3041
3037 3047
3037 3288
3037 3367
3038 3042
3038 3047
3038 4360
3039 4222
3040 3163
3041 3045
3041 3048
3042 3047
3042 3768
3042 3984
3043 3049
3043 4551
3044 4384
3045 3613
3045 4800
3046 4112
3047 4090
3047 4996
3048 3542
3048 4046
3048 4259
3049 4055
3049 4211
3050 3059
3050 4325
3050 4752
3051 3052
3051 3055
3051 3057
3051 3078
3051 4761
3052 3053
3052 3060
3052 3073
3052 3075
3053 3075
3053 3088
3053 4571
3054 3057
3054 3067
3054 3073
3054 3696
3054 4180
3055 3065
3055 3066
3055 3069
3055 3072
3055 3088
3055 3094
3055 3099
3056 3069
3056 3071
3056 3083
3056 3089
3056 4937
3057 3059
3057 3075
3057 3079
3057 3088
3058 3063
3058 3081
3058 3096
3058 3285
3058 4674
3059 3078
3059 3091
3059 3681
3060 3072
3060 3095
3060 3097
3060 3099
3060 3111
3060 3777
3060 4799
3061 3077
3061 3079
3061 3096
3061 3236
3061 3446
3061 4205
3062 3080
3062 3094
3062 3097
3062 4346
3063 3068
3063 3070
3063 3087
3064 3072
3064 3078
3064 3079
3064 3087
3064 3089
3064 3098
3064 3222
3065 3076
3065 3079
3065 3092
3065 3095
3065 4118
3065 4308
3066 3069
3066 3094
3066 3098
3066 3814
3066 3976
3066 4306
3066 4428
3067 3072
3067 3073
3068 3078
3068 3080
3068 3085
3068 3088
3068 3852
3069 3086
3069 3087
3069 3091
3069 4990
3070 3076
3070 3093
3070 3094
3070 3840
3070 4217
3071 3088
3071 4030
3071 4360
3071 4742
3071 4983
3072 3092
3072 4588
3073 3076
3073 3082
3073 3092
3073 3257
3073 3332
3073 3403
3073 3757
3073 4370
3073 4474
3073 4597
3074 3077
3074 3093
3074 4970
3075 3083
3075 3084
3075 3561
3075 3739
3075 4046
3075 4059
3076 3080
3076 3098
3076 4783
3077 3079
3077 3911
3078 3081
3078 3094
3078 4291
3079 3087
3079 4175
3080 3089
3080 3259
3080 3989
3080 4311
3081 3087
3081 3093
3081 3094
3081 4574
3082 4072
3083 3088
3083 3099
3083 4239
3083 4289
3084 3085
3084 3562
3084 3956
3084 4633
3085 3087
3085 3849
3085 4650
3086 3188
3086 3746
3086 4845
3087 3094
3087 3096
3087 4653
3088 3093
3088 3096
3088 4824
3089 3091
3089 3092
3089 4168
3089 4668
3090 3093
3090 3094
3090 3240
3090 3252
3090 3290
3090 3325
3090 4026
3091 3097
3091 3098
3091 4011
3091 4198
3092 3861
3092 4011
3093 3136
3093 3449
3093 4617
3094 3097
3094 3376
3095 3096
3095 3522
3095 4329
3095 4893
3096 3097
3096 3423
3096 3785
3097 3369
3098 3502
3098 4933
3099 3676
3099 3802
3099 3943
3099 4188
3100 3101
3100 3105
3100 3132
3100 3133
3100 3141
3100 3144
3100 3145
3100 4941
3101 3115
3101 3132
3101 3712
3101 4375
3101 4614
3102 3104
3102 3121
3102 3122
3102 3135
3102 3138
3102 3142
3102 3143
3102 3852
3102 4104
3103 3106
3103 3110
3103 3145
3103 3978
3103 4660
3103 4697
3104 3116
3104 3120
3104 3133
3104 3269
3104 3382
3104 4575
3104 4964
3105 3117
3105 3135
3105 4523
3106 3110
3106 3115
3106 3128
3106 3143
3106 3147
3106 3177
3106 4530
3106 4815
3107 3108
3107 3116
3107 3123
3108 3123
3108 3129
3108 3133
3108 3138
3108 3915
3108 4636
3109 3110
3109 3121
3109 3131
3109 3142
3109 3144
3109 3363
3109 3791
3109 4518
3109 4681
3110 3120
3110 3127
3110 3146
3110 3941
3110 3973
3111 3119
3111 3121
3111 3130
3111 3230
3111 3929
3111 4797
3112 3115
3112 3123
3112 3124
3112 3130
3112 3148
3112 3165
3113 3116
3113 3119
3113 3122
3113 3339
3113 3558
3113 3978
3113 4219
3114 3117
3114 3121
3114 4018
3114 4647
3115 3123
3115 3124
3115 3127
3115 3133
3115 3146
3115 3147
3115 3901
3116 3142
3117 3121
3117 3134
3117 3147
3117 3319
3118 3224
3119 3130
3119 3146
3119 3288
3119 3979
3119 4444
3120 3121
3120 3129
3120 3135
3120 3140
3120 3921
3121 3132
3121 4795
3122 3126
3122 3132
3122 3140
3122 3143
3122 3148
3123 3128
3123 3132
3123 3140
3123 3727
3123 4520
3123 4661
3124 3129
3124 3130
3124 3148
3124 3570
3124 4133
3124 4134
3124 4338
3124 4629
3124 4670
3124 4798
3125 3127
3125 3139
3125 3186
3126 3140
3126 3149
3127 3131
3127 3148
3127 3149
3127 4387
3127 4389
3128 3136
3128 3138
3128 3144
3128 3145
3128 3516
3128 3551
3128 3552
3128 4291
3129 3140
3129 3147
3129 4430
3130 3140
3130 3141
3130 3401
3131 3144
3131 3638
3132 3143
3132 3146
3132 3884
3133 3142
3133 3146
3133 3147
3133 3736
3134 3138
3134 3455
3134 3487
3134 3504
3134 3981
3135 3136
3135 3146
3135 3221
3135 3332
3135 3808
3136 3147
3136 4973
3136 4989
3137 3141
3137 3145
3137 3528
3137 4763
3137 4911
3138 3149
3138 3745
3138 4267
3138 4589
3139 3581
3139 4042
3139 4327
3140 3657
3141 3146
3142 3147
3142 4007
3142 4159
3143 3521
3143 3749
3143 3877
3143 4012
3143 4617
3144 3288
3144 3643
3144 3659
3145 3410
3145 4175
3145 4813
3147 3355
3147 3412
3147 3561
3147 3683
3148 4313
3149 3198
3149 3281
3149 4295
3149 4762
3150 3159
3150 3171
3150 3183
3150 3188
3150 3189
3150 3645
3151 3190
3151 3464
3151 3895
3152 3160
3152 3164
3152 3168
3152 3190
3152 3199
3153 3169
3153 3182
3153 3183
3153 3842
3154 3158
3154 3175
3155 3178
3155 3189
3155 3195
3155 3198
3155 3244
3155 4016
3156 3163
3156 3175
3156 3198
3156 3617
3156 3852
3157 3159
3157 3162
3157 3164
3157 3166
3157 3177
3157 3195
3157 3516
3157 4032
3158 3163
3158 3166
3158 3177
3158 3181
3158 3184
3158 3189
3158 4117
3158 4568
3158 4704
3159 3168
3159 3171
3159 3188
3159 3190
3159 3192
3159 3193
3159 3197
3159 3928
3160 3161
3160 3164
3160 3173
3160 3191
3160 3192
3160 3193
3160 3194
3160 3772
3160 3798
3160 3833
3160 4191
3160 4640
3161 3173
3161 3180
3161 3187
3161 3195
3161 3578
3161 3880
3161 4554
3162 3168
3162 3170
3162 3171
3162 3180
3162 3190
3162 3198
3162 4903
3162 4946
3163 4072
3164 3165
3164 4065
3164 4377
3164 4388
3165 3172
3165 3175
3165 3188
3165 3190
3165 3193
3165 3254
3165 4935
3166 4523
3167 3168
3167 3171
3167 3172
3167 3175
3167 3180
3167 3181
3167 3187
3167 3306
3168 3173
3168 3180
3168 3198
3169 3373
3169 3485
3170 3173
3170 3177
3170 3194
3170 3196
3170 3198
3171 3175
3171 3176
3171 3197
3171 3511
3171 3546
3172 3173
3172 3188
3172 3194
3172 3196
3172 3199
3173 3177
3173 3190
3173 3745
3173 3837
3173 4775
3174 3184
3174 3793
3174 4723
3175 3179
3175 4903
3176 3181
3176 3192
3176 3193
3176 4065
3176 4942
3177 3182
3177 3192
3178 3185
3178 3188
3178 3199
3178 3606
3179 3188
3179 3199
3179 4075
3179 4643
3179 4901
3180 3184
3180 3187
3180 3193
3181 3190
3181 3192
3181 3199
3181 3785
3181 4311
3182 3186
3182 3190
3182 3196
3182 3197
3182 3356
3182 4522
3182 4929
3183 3198
3184 3191
3184 3197
3184 4048
3184 4069
3184 4171
3184 4176
3185 3191
3185 4266
3186 3187
3186 3191
3186 4040
3186 4605
3186 4646
3186 4916
3187 4113
3188 3345
3188 4320
3188 4812
3189 3659
3189 4453
3189 4488
3190 3547
3190 3726
3190 3993
3190 4634
3190 4788
3191 4219
3191 4932
3192 3361
3193 4259
3194 3788
3195 3737
3195 3775
3195 4826
3196 3197
3196 3385
3196 3873
3196 4660
3197 3199
3197 3897
3198 3533
3198 4005
3198 4121
3198 4941
3200 3202
3200 3204
3200 3223
3200 3242
3200 3297
3200 3786
3200 4645
3200 4966
3201 3202
3201 3205
3201 3211
3201 3212
3201 3218
3201 3225
3201 3226
3201 3235
3201 3237
3201 3246
3202 3204
3202 3210
3202 3249
3202 3378
3202 3503
3203 3205
3203 3222
3203 3226
3203 3230
3203 3235
3203 3243
3203 3461
3203 4141
3204 3206
3204 3216
3204 3219
3204 3221
3204 3229
3204 3240
3204 4357
3205 3210
3205 3227
3205 3228
3205 3239
3205 3445
3206 3210
3206 3239
3206 3246
3206 3247
3207 3212
3207 3224
3207 3227
3207 3229
3207 3232
3207 3240
3207 3248
3207 4927
3208 3212
3208 3233
3208 3241
3208 3246
3208 3472
3208 3877
3208 4431
3209 3229
3209 3243
3209 3248
3209 4101
3210 3213
3210 3214
3210 3239
3210 3853
3211 3230
3211 3234
3211 3531
3211 4724
3212 3218
3212 3223
3212 3482
3212 3959
3212 3988
3213 3216
3213 3220
3213 3223
3213 3224
3213 3226
3213 3233
3213 4625
3214 3219
3214 3220
3214 3222
3214 3238
3215 3219
3215 3225
3215 3238
3215 3246
3215 4031
3215 4501
3216 3217
3216 3218
3216 3222
3216 3231
3216 3245
3216 3737
3216 3799
3217 3219
3217 3223
3217 3224
3217 3234
3217 3583
3217 4202
3218 3224
3218 3597
3218 3765
3218 4997
3219 3228
3219 3232
3219 3239
3219 3249
3219 4752
3220 3225
3220 3246
3220 4468
3220 4559
3221 3227
3222 3239
3222 4824
3223 3232
3223 3240
3223 3664
3224 3228
3224 3237
3224 3239
3224 3241
3224 3246
3224 3247
3224 4584
3225 3229
3225 3234
3225 3970
3226 3233
3226 3949
3226 4098
3226 4461
3227 3235
3227 3241
3227 3325
3227 3770
3227 4011
3228 3246
3228 3248
3228 3249
3228 3875
3229 3230
3229 3237
3229 3243
3229 3248
3229 3249
3230 4678
3231 3236
3231 3243
3231 3247
3231 3634
3231 3706
3231 3854
3231 4000
3231 4090
3232 3241
3232 3249
3232 3568
3232 4130
3232 4360
3232 4725
3233 4880
3234 3244
3234 3353
3234 3405
3234 3992
3234 4230
3234 4883
3235 3239
3235 3241
3235 3244
3236 3238
3236 3241
3236 3246
3236 4672
3236 4843
3236 4850
3237 3241
3237 3248
3237 4242
3238 3249
3239 3242
3239 3245
3239 3246
3239 3296
3240 3245
3240 4021
3241 3243
3241 3946
3241 3972
3241 4274
3242 3265
3244 3333
3244 3738
3244 4959
3245 3248
3245 4306
3245 4989
3246 3430
3246 4367
3247 3758
3247 4750
3247 4759
3247 4786
3248 4796
3249 3608
3249 3844
3249 4612
3250 3261
3250 3262
3250 3277
3250 3284
3250 3290
3250 4086
3250 4145
3251 3267
3251 3268
3251 3275
3251 3282
3252 3255
3252 3262
3252 3278
3252 3279
3252 3283
3252 3285
3252 3298
3252 4175
3252 4722
3253 3258
3253 3269
3253 3279
3254 3279
3254 3282
3254 3291
3254 3508
3254 4544
3254 4774
3255 3910
3256 3257
3256 3282
3256 3284
3256 3294
3256 3295
3256 4214
3257 3265
3257 3266
3257 3267
3257 3268
3257 3275
3257 3276
3257 3286
3257 3289
3257 4037
3257 4761
3258 3260
3258 3261
3258 3265
3258 3270
3258 3281
3258 3286
3258 3298
3258 3719
3258 3950
3258 4026
3258 4062
3258 4981
3259 3264
3259 3268
3259 3272
3259 3286
3259 3290
3259 3292
3259 3293
3259 3584
3259 3817
3260 3271
3260 3272
3260 3275
3260 3292
3260 3293
3260 3294
3260 3295
3260 3943
3260 4059
3261 3279
3261 3284
3261 3286
3261 3290
3262 3269
3262 3274
3262 3279
3262 3760
3263 3264
3263 3271
3263 3289
3263 3290
3263 3296
3264 3269
3264 3270
3264 3277
3264 3291
3264 3296
3264 3299
3265 3266
3265 3296
3265 4041
3266 3267
3266 3283
3266 3285
3266 3288
3266 3452
3266 3797
3266 4425
3267 3280
3267 3289
3267 3294
3267 3295
3267 3590
3267 4248
3268 3270
3268 3274
3268 3280
3268 3285
3268 3288
3268 3295
3268 3475
3269 3296
3269 4273
3269 4595
3269 4742
3270 3289
3270 3292
3270 3493
3270 3719
3271 3275
3271 3286
3271 3290
3271 3293
3271 4531
3272 3281
3272 3282
3272 4469
3273 3274
3273 3277
3273 3286
3274 3282
3274 3286
3274 3291
3274 3410
3274 4432
3274 4792
3274 4922
3275 4001
3276 3283
3276 3296
3276 3298
3276 3851
3276 4088
3276 4406
3276 4506
3276 4689
3276 4903
3277 3279
3277 3289
3277 3297
3278 3294
3278 4153
3278 4814
3279 3288
3279 3290
3279 3291
3279 3642
3280 4026
3280 4182
3280 4263
3280 4806
3281 3283
3281 3292
3281 3294
3281 3296
3281 4539
3282 3283
3282 3295
3282 4006
3283 3298
3283 3428
3283 4350
3283 4670
3284 3299
3284 4770
3285 3297
3285 3325
3286 3295
3286 3454
3286 4826
3287 3291
3287 4239
3287 4884
3288 3293
3288 3371
3288 4003
3289 3292
3289 3336
3289 3769
3289 4836
3290 3884
3290 4396
3291 3292
3291 3295
3291 4914
3292 4468
3293 3837
3293 4035
3293 4330
3294 4222
3294 4763
3297 3902
3297 4491
3298 3299
3298 4175
3299 4319
3300 3309
3300 3323
3300 3324
3300 3326
3300 3333
3300 3345
3300 3349
3300 3587
3300 4966
3301 3308
3301 3327
3301 3328
3301 3338
3301 3345
3302 3315
3302 3331
3302 3336
3302 3343
3303 3309
3303 3311
3303 3312
3303 3323
3303 3326
3303 3336
3303 3345
3303 3347
3303 4363
3304 3305
3304 3326
3304 3328
3304 3336
3304 3338
3304 3345
3304 3349
3304 3413
3304 3936
3305 3311
3305 3320
3305 3337
3305 3342
3305 3519
3305 4855
3306 3307
3306 3317
3307 3309
3307 3312
3307 3331
3307 3766
3308 3317
3308 3318
3308 3344
3308 3358
3308 3805
3309 3318
3309 3322
3309 3324
3309 3328
3309 3340
3309 3713
3309 4598
3310 3317
3310 3323
3310 3325
3310 3328
3310 3340
3310 4091
3311 3321
3311 3323
3311 3326
3311 3336
3311 3338
3311 4321
3311 4866
3311 4884
3312 3314
3312 3323
3312 3328
3312 3331
3312 3332
3312 3336
3312 3339
3312 3344
3312 3348
3312 3349
3312 3786
3312 4791
3313 3319
3313 3330
3313 3332
3313 3338
3313 3339
3313 3344
3313 3345
3313 3347
3313 3348
3313 4896
3314 3320
3314 3340
3314 3717
3314 4236
3314 4601
3314 4698
3315 3344
3315 3349
3315 3562
3315 4113
3316 3318
3316 3320
3316 3339
3316 3346
3316 3697
3316 4776
3317 3330
3317 3337
3317 3344
3317 4284
3317 4294
3317 4493
3317 4837
3318 3319
3318 3321
3318 3326
3318 3327
3318 3331
3318 3335
3318 3340
3318 3349
3318 4264
3318 4756
3318 4802
3319 3346
3320 3321
3320 3347
3320 3460
3320 4637
3320 4725
3321 3346
3321 4159
3322 3329
3322 3340
3322 3345
3322 3346
3322 3625
3323 3328
3323 3330
3323 3347
3323 3834
3324 3335
3324 3337
3324 3346
3324 3349
3324 3389
3324 3468
3324 4022
3324 4982
3325 3346
3325 3695
3326 3329
3326 3333
3326 3342
3326 3367
3326 3439
3326 4340
3327 3330
3327 3341
3327 3348
3328 3334
3328 3341
3328 3348
3328 3645
3328 3744
3328 4354
3328 4425
3328 4990
3329 3336
3329 3732
3329 4173
3329 4660
3330 3347
3331 3342
3331 3348
3331 3877
3331 4300
3331 4588
3332 3340
3332 3344
3332 3672
3333 4184
3333 4224
3334 3339
3335 4217
3336 3340
3337 3338
3337 3348
3337 3592
3337 4303
3338 3347
3339 3348
3340 3348
3343 3906
3343 4329
3343 4996
3344 3348
3344 4251
3346 3477
3346 4578
3346 4986
3347 4173
3348 3796
3349 4082
3349 4766
3350 3357
3350 3363
3350 3366
3350 3369
3350 3379
3350 3386
3350 3391
3350 4123
3350 4793
3351 3359
3351 3365
3351 3372
3351 3388
3351 3395
3351 3636
3352 3368
3352 3390
3352 3399
3352 4469
3353 3357
3353 3376
3353 3382
3353 3390
3353 3443
3353 4036
3353 4482
3354 3366
3354 3378
3354 3379
3354 3381
3354 3384
3354 3390
3354 3398
3354 3406
3354 3466
3355 3365
3355 3374
3355 3389
3355 3392
3355 3398
3355 3838
3356 3363
3356 3364
3356 3365
3356 3369
3356 3370
3356 3371
3356 3397
3356 3399
3356 4406
3357 3363
3357 3364
3357 3377
3357 3389
3357 3600
3357 4286
3358 3366
3358 3372
3358 3380
3358 3383
3358 3390
3358 3391
3358 3396
3358 4525
3358 4632
3358 4944
3359 3360
3359 3366
3359 3382
3359 3383
3359 3384
3359 3394
3359 3395
3359 3873
3359 4306
3360 3376
3360 3385
3360 3389
3360 3390
3360 3399
3361 3370
3361 3373
3361 3379
3361 3387
3361 4532
3361 4673
3361 4911
3362 3801
3362 4981
3363 3382
3363 3387
3363 4111
3363 4620
3364 3367
3364 3377
3364 3393
3364 4035
3365 3368
3365 3372
3365 3373
3365 3376
3365 3378
3365 3397
3365 3791
3365 4689
3366 3374
3366 3381
3366 3909
3366 4010
3366 4540
3367 3368
3367 3371
3367 3372
3367 3374
3367 3382
3367 3385
3367 3395
3367 3396
3367 4805
3368 3371
3368 4602
3369 3379
3369 3386
3369 3391
3369 4808
3370 3373
3370 3379
3370 3390
3370 3399
3370 4616
3370 4749
3371 3385
3371 3388
3371 3391
3372 3386
3372 3415
3372 4234
3372 4539
3373 3389
3374 3379
3374 3384
3374 3395
3374 3577
3374 4740
3375 3398
3375 3625
3375 4375
3376 3380
3376 3384
3376 3385
3376 3387
3376 3391
3376 4164
3377 3378
3377 4157
3377 4742
3378 3379
3378 3386
3378 3389
3378 4029
3378 4709
3379 4625
3380 3381
3380 3551
3380 3727
3380 3826
3381 3391
3382 3389
3382 4654
3384 3391
3384 3399
3384 4963
3385 4686
3386 3395
3386 3396
3386 3399
3386 4163
3386 4646
3386 4841
3387 3388
3387 3389
3387 3597
3388 3394
3388 3674
3388 4978
3389 3393
3389 4037
3389 4877
3390 3392
3390 4735
3390 4945
3391 3399
3391 3888
3392 3398
3392 3399
3392 4110
3393 3397
3393 3987
3394 3395
3394 3492
3394 3505
3394 4021
3395 3398
3395 3590
3395 4621
3395 4994
3396 4567
3396 4680
3397 4207
3397 4484
3397 4544
3399 3787
3399 4671
3399 4929
3400 3401
3400 3405
3400 3423
3400 3424
3400 3447
3400 3727
3400 4858
3401 3403
3401 3405
3401 3412
3401 3593
3401 4040
3401 4666
3402 3411
3402 3413
3402 3424
3402 3427
3402 3437
3402 3438
3402 3440
3402 3444
3402 3622
3402 4718
3403 3408
3403 3419
3403 3427
3403 3428
3403 3430
3403 3445
3403 3447
3403 3827
3403 3828
3403 4112
3404 3406
3404 3407
3404 3413
3404 3416
3404 3420
3404 3421
3404 3424
3404 3426
3404 3434
3404 3439
3404 4158
3405 3407
3405 3429
3405 3434
3405 3439
3405 3501
3405 3943
3405 4432
3406 3410
3406 3797
3407 3432
3407 3446
3407 3737
3408 3411
3408 3416
3408 3436
3408 3437
3408 3441
3408 4076
3408 4465
3409 3418
3409 3422
3409 3449
3410 3411
3410 3434
3410 3436
3410 3438
3411 3413
3411 3438
3411 3440
3411 3442
3411 3617
3411 4014
3412 3427
3412 3432
3412 3437
3412 4038
3412 4384
3412 4983
3413 3418
3413 3419
3413 3428
3413 3441
3413 4050
3414 3441
3414 3919
3414 3950
3414 4713
3414 4974
3415 3418
3415 3422
3415 3424
3415 3426
3415 3435
3415 3437
3415 3444
3415 3448
3415 4349
3416 3440
3417 3428
3417 3429
3417 3432
3417 3839
3418 3429
3418 3447
3419 3424
3419 3710
3419 4477
3420 3422
3420 3441
3420 3449
3420 3674
3421 3425
3421 3428
3421 3443
3421 3445
3421 3503
3421 4152
3422 3427
3422 3429
3422 3811
3422 4207
3423 3425
3423 3440
3423 3441
3423 3445
3424 3449
3424 3596
3424 4711
3425 3432
3425 3441
3425 3444
3425 3447
3425 3642
3425 4254
3426 3677
3427 3446
3427 3589
3428 3438
3428 4852
3429 3431
3429 3449
3430 3445
3430 3513
3430 4139
3430 4724
3430 4750
3431 3438
3431 3447
3431 3449
3431 3995
3431 4949
3432 3439
3432 3686
3432 4608
3432 4722
3432 4729
3433 3933
3433 4772
3434 3438
3434 3568
3434 3822
3435 3447
3435 4714
3436 3440
3436 3448
3436 3570
3436 4017
3436 4638
3437 3439
3438 3441
3438 3442
3438 3446
3438 3762
3438 4856
3439 4577
3439 4816
3439 4983
3440 3867
3441 4264
3441 4547
3442 4312
3442 4671
3443 3446
3443 3583
3444 3834
3444 4358
3444 4606
3444 4709
3445 3448
3445 4981
3446 3767
3447 3671
3448 3597
3450 3456
3450 3467
3450 3496
3450 3498
3450 4004
3451 3476
3451 3477
3451 3497
3451 3499
3452 3455
3452 3457
3452 3475
3452 3480
3452 3484
3452 3486
3452 3487
3452 3490
3452 3544
3452 3625
3452 4676
3452 4812
3453 3457
3453 3469
3453 3473
3453 3484
3453 3487
3453 3491
3453 3498
3453 4894
3454 3458
3454 3460
3454 3464
3454 3473
3454 3476
3454 3487
3454 3490
3454 3494
3454 3495
3454 4889
3454 4900
3455 3457
3455 3463
3455 3472
3455 3478
3455 3489
3455 3495
3455 3498
3455 4523
3455 4566
3456 3463
3456 3471
3456 3492
3456 3617
3457 3459
3457 3477
3457 4585
3458 3467
3458 3471
3458 3472
3458 3474
3458 3479
3458 3487
3458 3488
3458 3499
3458 4091
3458 4926
3459 3471
3459 3481
3459 3485
3459 3491
3459 4570
3459 4704
3460 3469
3460 3472
3460 3473
3460 3477
3460 4276
3460 4636
3461 3462
3461 3479
3461 3482
3462 3476
3462 3481
3462 3486
3463 3473
3463 3486
3463 3962
3463 4028
3464 3465
3464 3496
3464 4685
3464 4809
3465 3477
3465 3479
3465 3480
3465 3493
3465 3628
3465 3887
3465 4234
3465 4874
3466 3485
3466 3489
3466 3806
3466 3986
3466 4613
3467 3475
3467 3485
3467 3497
3467 4272
3467 4403
3467 4851
3468 3479
3468 3484
3468 4051
3468 4959
3469 3470
3470 3474
3470 3475
3470 3493
3470 3979
3470 4663
3471 3477
3471 3480
3471 3487
3471 3498
3471 4465
3472 3479
3473 3475
3473 3477
3473 3487
3473 3489
3473 3497
3473 4587
3474 3486
3475 3486
3475 3493
3475 3495
3475 3497
3476 3494
3476 3496
3476 4013
3477 3481
3477 4330
3478 3487
3478 3490
3478 3492
3478 4186
3478 4792
3478 4909
3479 3492
3479 3950
3480 4037
3480 4217
3480 4870
3481 3490
3482 4940
3483 3490
3483 4841
3484 4408
3484 4629
3485 3487
3485 3913
3485 4449
3485 4724
3486 4504
3487 3495
3487 3499
3487 4294
3488 3493
3488 3496
3488 3915
3489 3493
3490 3493
3490 3561
3491 3495
3491 3700
3492 4051
3493 3760
3493 4981
3494 4110
3494 4112
3494 4308
3495 3897
3495 4313
3496 3848
3498 3931
3498 3961
3499 3673
3500 3512
3500 3514
3500 3518
3500 3896
3501 3521
3501 3615
3501 4407
3502 3505
3502 3512
3502 3519
3502 3523
3502 3525
3502 3768
3502 4984
3503 3504
3503 3508
3503 4147
3503 4328
3504 3506
3504 3525
3504 3528
3504 3533
3504 3540
3504 3549
3504 3578
3504 3892
3504 4125
3504 4364
3505 3507
3505 3517
3505 3524
3505 3529
3505 3532
3506 3529
3506 3533
3506 3542
3506 3748
3507 3518
3507 3522
3507 3528
3507 3532
3507 3537
3508 3522
3508 3527
3508 3532
3508 3536
3508 3540
3508 4538
3509 3515
3509 3540
3509 3637
3509 3833
3509 4011
3510 3511
3510 3517
3510 3522
3510 3525
3510 3531
3510 3538
3511 3514
3511 3518
3511 3535
3511 3537
3511 4750
3512 3513
3512 3515
3512 3516
3512 3532
3512 3538
3512 3539
3512 3540
3512 3545
3512 3567
3513 3524
3513 3539
3513 3547
3513 4221
3513 4523
3514 3517
3514 3526
3514 3536
3514 3538
3514 3540
3514 3543
3514 3571
3514 4143
3515 3520
3515 3525
3515 3536
3515 3549
3516 3519
3516 3539
3516 3543
3516 4771
3517 3524
3517 3532
3517 3535
3517 3548
3517 3852
3518 3526
3518 3528
3518 3529
3518 3533
3518 3537
3518 3547
3519 3523
3519 3549
3519 4560
3519 4580
3520 3524
3520 3528
3520 3544
3520 3548
3520 3549
3520 4654
3521 3526
3521 3530
3521 3543
3521 3547
3521 3593
3521 4912
3522 3526
3522 3529
3522 3543
3523 3992
3523 4677
3524 3543
3525 3530
3525 3543
3525 3744
3525 3997
3525 4544
3525 4676
3525 4683
3526 3539
3526 3549
3526 4203
3526 4774
3527 4303
3527 4395
3527 4806
3528 3541
3528 3548
3528 3549
3529 3542
3529 3604
3529 4217
3530 3723
3530 4705
3531 3534
3531 3539
3531 4696
3532 3538
3532 3548
3532 4264
3532 4321
3532 4536
3532 4836
3533 3536
3533 3540
3533 3543
3533 3683
3534 4270
3535 3539
3535 3542
3535 3543
3535 3714
3535 4098
3535 4875
3536 3540
3536 3545
3536 4213
3536 4369
3536 4404
3536 4606
3537 3538
3537 3544
3537 3548
3537 4065
3538 4597
3539 3541
3539 4149
3539 4654
3540 4556
3541 3542
3541 3549
3541 4285
3541 4485
3542 3978
3542 4176
3542 4292
3542 4326
3542 4530
3542 4816
3543 3547
3543 3551
3543 3843
3543 3904
3543 4169
3544 4962
3545 4351
3546 3733
3548 4462
3548 4886
3549 3817
3549 4047
3549 4310
3549 4905
3550 3555
3550 3564
3550 3572
3550 3582
3550 3586
3550 3592
3550 3593
3550 3607
3551 3553
3551 3556
3551 3571
3551 3580
3551 3583
3551 3593
3551 4077
3551 4791
3552 3575
3552 3576
3552 3582
3552 3591
3552 4941
3552 4990
3553 3558
3553 3564
3553 3568
3553 3571
3553 3576
3553 3580
3553 3821
3553 4682
3553 4849
3554 3555
3554 3560
3554 3570
3554 3577
3554 3578
3554 3591
3554 3592
3554 3598
3554 3836
3555 3563
3555 3572
3555 3590
3555 3593
3555 3597
3555 4157
3556 3564
3556 3565
3556 4269
3557 3562
3557 3565
3557 3566
3557 3568
3557 3575
3557 3578
3557 3581
3557 3584
3557 3593
3557 4916
3558 3571
3558 3585
3558 3588
3558 3593
3558 3594
3558 3598
3558 4402
3559 3565
3559 3576
3559 3580
3559 3833
3559 4766
3559 4993
3560 3561
3560 3564
3560 3568
3560 3571
3560 3587
3560 3592
3560 3916
3561 3562
3561 3571
3561 3575
3561 3576
3561 3596
3561 3599
3561 3700
3562 3575
3562 3589
3562 3592
3562 4913
3563 3584
3563 3589
3563 3593
3563 3595
3563 4233
3563 4840
3564 3565
3564 3568
3564 3578
3564 3579
3564 3582
3564 4422
3565 3567
3565 3569
3565 3572
3565 3574
3565 3576
3565 3588
3565 3594
3566 3571
3566 3591
3566 4827
3566 4972
3567 3568
3567 3578
3567 3585
3567 3590
3568 3572
3568 3574
3568 3575
3568 3577
3568 4010
3568 4252
3569 3570
3569 3589
3569 3824
3569 3880
3569 3989
3569 4175
3569 4227
3570 3591
3570 3597
3570 4064
3570 4667
3571 3578
3571 3579
3571 3592
3572 3588
3572 3673
3572 4530
3573 3575
3573 3578
3573 3587
3573 3591
3573 3719
3574 3592
3574 3593
3574 3594
3575 3578
3575 3589
3575 3673
3576 3597
3577 3579
3577 3594
3577 3596
3577 4728
3578 3579
3578 3580
3578 3590
3578 3592
3578 4996
3579 3583
3579 3585
3579 3595
3579 3596
3580 3582
3580 3760
3580 4616
3580 4660
3581 3589
3581 3598
3581 3962
3582 3593
3582 4662
3583 3842
3583 4535
3583 4595
3583 4606
3584 3592
3584 4505
3586 3597
3586 3598
3587 4133
3587 4833
3589 3593
3589 3597
3589 3599
3589 4407
3590 3598
3590 3915
3590 4102
3590 4275
3591 3593
3592 3654
3592 4000
3593 3780
3595 3805
3596 3599
3596 3756
3596 3765
3597 3599
3597 3848
3598 3937
3598 4369
3598 4680
3600 3610
3600 3620
3600 3622
3600 3638
3600 4070
3601 3610
3601 3620
3601 3623
3601 3632
3601 3636
3601 3647
3602 3613
3602 3619
3602 3623
3602 3625
3602 3626
3602 3632
3602 3633
3602 3637
3602 3639
3602 3645
3602 3726
3602 4985
3603 3607
3603 3638
3603 3696
3603 4770
3604 3610
3604 3616
3604 3618
3604 3620
3604 3623
3604 3636
3604 3639
3604 3644
3604 4468
3605 3619
3605 3625
3605 3636
3605 4998
3606 3613
3606 3615
3606 3635
3606 3636
3606 3642
3606 3907
3607 3609
3607 3622
3607 3625
3607 3634
3607 3648
3608 3610
3608 3617
3608 3632
3608 3636
3608 3639
3608 3640
3608 3666
3608 4002
3608 4897
3609 3612
3609 3625
3609 3631
3609 3641
3609 3864
3609 4842
3610 3614
3610 3617
3610 3620
3610 3627
3610 4714
3611 3628
3611 4832
3612 3618
3612 3619
3612 3622
3612 3637
3612 4585
3612 4770
3613 3618
3613 3620
3613 3628
3613 4283
3613 4367
3613 4722
3613 4844
3614 3618
3614 3626
3614 3640
3614 3648
3615 3644
3615 4719
3616 3630
3616 3639
3616 4473
3616 4828
3616 4931
3617 3624
3617 3628
3617 3629
3617 3634
3617 4099
3617 4551
3617 4912
3618 3619
3618 3628
3618 3630
3618 3643
3618 4057
3618 4947
3619 4026
3620 3640
3620 4045
3620 4411
3621 3626
3621 3637
3621 3641
3622 3636
3622 3646
3623 3631
3623 3642
3623 3646
3624 3628
3624 3629
3624 3647
3624 3649
3624 4166
3624 4713
3625 3631
3625 3639
3625 3643
3625 4478
3625 4744
3625 4967
3626 3635
3626 3643
3626 3877
3626 4388
3626 4635
3627 3633
3627 3641
3627 4580
3628 3632
3628 3641
3629 3649
3629 4436
3630 3638
3630 3648
3630 3940
3631 3634
3631 3642
3631 3719
3631 4538
3632 3633
3632 3634
3633 3642
3633 3644
3633 4171
3633 4838
3634 3639
3634 3647
3634 4379
3635 3636
3635 3637
3635 3638
3635 3640
3635 3643
3635 4135
3636 3637
3636 3645
3636 3966
3636 4364
3637 3642
3637 3648
3638 4428
3638 4687
3638 4808
3639 3644
3639 3943
3639 4190
3639 4917
3640 3646
3641 4962
3642 3644
3642 3647
3642 3677
3642 4011
3644 3649
3644 4859
3645 3647
3645 3648
3645 4492
3645 4782
3646 3810
3646 4400
3646 4837
3647 4210
3647 4452
3647 4506
3648 4623
3649 4393
3650 3657
3650 3663
3650 3667
3650 3668
3650 3670
3650 3682
3650 3688
3650 3689
3650 3690
3650 3691
3650 3698
3650 4304
3650 4524
3650 4838
3651 3669
3651 3670
3651 3683
3651 3684
3652 3675
3652 3719
3652 3986
3652 4091
3652 4580
3653 3657
3653 3670
3653 3676
3653 3743
3654 3661
3654 3689
3654 3754
3655 3660
3655 3680
3656 3659
3656 3664
3656 3684
3656 3691
3656 3699
3656 4268
3656 4279
3657 3663
3657 3665
3657 3675
3657 3678
3657 3679
3657 3694
3657 4313
3658 3663
3658 3669
3658 3676
3658 3690
3658 4367
3659 3669
3659 3683
3659 3690
3659 3692
3659 4093
3659 4565
3659 4942
3660 3688
3660 3690
3660 3694
3661 3664
3661 3668
3661 3673
3661 3680
3661 3681
3661 3682
3661 3684
3661 3697
3661 3698
3662 3668
3662 3670
3662 3679
3662 3680
3663 3673
3663 3679
3663 4198
3663 4321
3663 4370
3664 3672
3664 3674
3664 3677
3664 3683
3664 3698
3665 3686
3665 3691
3665 3699
3665 4207
3665 4629
3666 3667
3666 3683
3666 3697
3666 3859
3666 4564
3667 3673
3667 3675
3667 3698
3667 4318
3668 3676
3668 3681
3669 3676
3669 3692
3670 3684
3670 4460
3670 4808
3671 3678
3671 3680
3671 4567
3672 3685
3672 3986
3672 4141
3673 3675
3673 3693
3673 3697
3674 3675
3674 3677
3674 3680
3674 3685
3674 3691
3674 3895
3674 4020
3674 4279
3675 3677
3675 3679
3675 3695
3676 3687
3676 4479
3676 4484
3677 3691
3677 3692
3677 3697
3678 4959
3679 3680
3679 3683
3679 4519
3679 4572
3680 3691
3680 3697
3680 4047
3680 4465
3680 4498
3680 4800
3680 4919
3681 3694
3681 3696
3681 3937
3681 4333
3682 3683
3682 3688
3682 3695
3683 3686
3683 3690
3683 3694
3683 3697
3684 3694
3685 3686
3685 4397
3686 3688
3686 3693
3687 3690
3687 4224
3687 4455
3688 3698
3688 3853
3689 4321
3690 3699
3690 4407
3691 3695
3691 3762
3691 4804
3692 3693
3692 3805
3692 4749
3693 3914
3693 3915
3693 4473
3694 3903
3694 4351
3695 3903
3695 4140
3696 3699
3696 3754
3696 4104
3698 4967
3699 3892
3699 4372
3699 4548
3699 4559
3699 4783
3700 3706
3700 3716
3700 3723
3700 3741
3700 3749
3701 3706
3701 3707
3701 3709
3701 3724
3701 3728
3701 3731
3701 3745
3701 3746
3701 3931
3702 3707
3702 3709
3702 3711
3702 3713
3702 3716
3702 3731
3702 3732
3702 3735
3702 3736
3702 3745
3703 3706
3703 3711
3703 3725
3703 3731
3703 3739
3703 3746
3703 3903
3703 4492
3704 3709
3704 3723
3704 3746
3705 3710
3705 3728
3705 3733
3705 3737
3705 3743
3705 4575
3706 3724
3706 3746
3706 3748
3706 4572
3707 3711
3707 3724
3707 3737
3707 3744
3707 4453
3708 3709
3708 3711
3708 3720
3708 3722
3708 3725
3708 3726
3708 3748
3709 3715
3709 3724
3709 3732
3710 3724
3710 3731
3711 3730
3711 3731
3711 3742
3711 3747
3711 3869
3712 3716
3712 3722
3712 3723
3712 3744
3712 4462
3713 3723
3713 3734
3713 3742
3713 3747
3714 3715
3714 3746
3714 3930
3714 4143
3714 4484
3714 4785
3715 3735
3715 3742
3715 3802
3716 3722
3716 3743
3716 3940
3716 4368
3717 3721
3717 3731
3717 3749
3717 4851
3717 4927
3718 3740
3718 3749
3718 3787
3718 4633
3719 3722
3719 3743
3719 4815
3720 3735
3720 3745
3720 3764
3720 3990
3721 3744
3722 3729
3722 3739
3722 3744
3723 3728
3723 3731
3723 3732
3723 3738
3723 3739
3723 3742
3723 3749
3723 4867
3724 3734
3724 3738
3724 3741
3724 3747
3724 4847
3725 3736
3725 3740
3725 3749
3726 3727
3726 3749
3726 4385
3727 3736
3727 3737
3727 3742
3727 3748
3727 4587
3728 3729
3728 3742
3728 3745
3729 3733
3729 3745
3729 3747
3729 3749
3729 4580
3729 4732
3729 4992
3730 3732
3730 3735
3730 3738
3730 3740
3732 3733
3732 3739
3732 3744
3732 4400
3733 3742
3733 3747
3733 3748
3733 4380
3733 4708
3735 3746
3735 3900
3735 4724
3737 3739
3737 4636
3737 4828
3738 3745
3739 3741
3739 3742
3739 3745
3739 3746
3739 3954
3740 3743
3740 3747
3740 3819
3741 3747
3742 4017
3743 3745
3743 4618
3743 4658
3745 3749
3746 4245
3746 4339
3746 4679
3746 4735
3747 3748
3747 3837
3748 4040
3749 4200
3749 4783
3749 4934
3750 3751
3750 3789
3750 3791
3750 3796
3750 3797
3750 4471
3750 4813
3751 3752
3751 3756
3751 3758
3751 3763
3751 3770
3751 3786
3751 3790
3751 3795
3751 4974
3752 3758
3752 3765
3752 3773
3752 3799
3752 4252
3753 3756
3753 3757
3753 3759
3753 3770
3753 3773
3753 3776
3753 3778
3753 3781
3753 4249
3754 3760
3754 3771
3754 3772
3754 3773
3754 3783
3754 3955
3754 4299
3754 4362
3754 4555
3754 4722
3754 4879
3755 3762
3755 3763
3755 3773
3755 3783
3755 3791
3755 3792
3755 4076
3756 3759
3756 3761
3756 3775
3757 3772
3757 3774
3757 3793
3757 3795
3758 3765
3758 3766
3758 3773
3758 3780
3758 3798
3758 3886
3759 3766
3759 3782
3759 3789
3759 3795
3759 3796
3759 4346
3759 4902
3760 3772
3760 3773
3760 3798
3760 4273
3760 4474
3760 4560
3761 3767
3761 3768
3761 3770
3761 3779
3761 3782
3761 3785
3761 3794
3761 3795
3761 3797
3761 4567
3762 3781
3762 3798
3762 4858
3763 3779
3763 3790
3763 4678
3764 3767
3764 3769
3764 3783
3764 3788
3765 3768
3765 3770
3765 3775
3765 3777
3765 3778
3765 3781
3765 3797
3765 4843
3766 3769
3766 3792
3766 4458
3767 3769
3767 3772
3767 3788
3767 3797
3767 4252
3768 3779
3768 3784
3768 3786
3768 3796
3768 4390
3769 3771
3769 3786
3769 3794
3769 3795
3769 3796
3769 3799
3769 3822
3769 4816
3769 4864
3770 3786
3770 3885
3770 4479
3771 3778
3771 3786
3771 3790
3771 3795
3771 4694
3771 4826
3772 3783
3772 4407
3773 3775
3773 3814
3775 3778
3775 3784
3775 3862
3776 3780
3776 3790
3776 3794
3776 3796
3776 4660
3776 4711
3776 4793
3776 4813
3777 3779
3778 3782
3779 3785
3779 3786
3780 3781
3780 4788
3781 3789
3781 3790
3781 3795
3781 4327
3781 4756
3782 3790
3782 3985
3782 4407
3782 4992
3784 3786
3785 4301
3785 4370
3786 3792
3786 3795
3786 4354
3786 4708
3787 3788
3787 3798
3788 3794
3789 3791
3789 4522
3789 4984
3790 4011
3791 3794
3793 4343
3793 4525
3794 3799
3794 4353
3794 4805
3794 4960
3795 4966
3796 3799
3796 4300
3796 4712
3797 4518
3797 4542
3799 4277
3800 3817
3800 3830
3800 3834
3800 4610
3801 3806
3801 3813
3801 3815
3801 3848
3801 3849
3801 4146
3801 4195
3801 4278
3801 4533
3801 4862
3802 3804
3802 3815
3802 3821
3802 3837
3802 4569
3802 4732
3802 4811
3803 3808
3803 3815
3803 3834
3803 3841
3803 3849
3803 4976
3804 3837
3804 3842
3805 3813
3805 3831
3805 3842
3805 3848
3805 4075
3806 3829
3806 3841
3807 3814
3807 3815
3807 3836
3807 4411
3807 4417
3807 4521
3808 3815
3808 3834
3808 3846
3808 4050
3808 4103
3808 4540
3808 4659
3809 3829
3809 3834
3809 3848
3809 4478
3809 4528
3810 3812
3810 3820
3810 3846
3810 4446
3811 3829
3811 3835
3811 3836
3811 3849
3812 3817
3812 3821
3812 3826
3812 3837
3812 3846
3813 3820
3813 3823
3813 3838
3813 4527
3814 3820
3814 3834
3814 3841
3814 3846
3814 3849
3814 4903
3815 3830
3815 3843
3815 3902
3816 3830
3816 3833
3816 3839
3817 3824
3817 3825
3817 3828
3817 3839
3817 3840
3817 4074
3817 4959
3818 3820
3818 3824
3818 3834
3818 3838
3818 3849
3818 4757
3819 3841
3819 3844
3819 3847
3819 4090
3819 4718
3819 4849
3820 3838
3820 3848
3820 4663
3821 3823
3821 3830
3821 3846
3821 4919
3822 3825
3822 3840
3822 3848
3822 4369
3823 3828
3823 3834
3823 3836
3823 3847
3823 4085
3823 4655
3824 3838
3824 3843
3824 3846
3824 4025
3824 4041
3825 3834
3825 3839
3825 4607
3826 3833
3826 3843
3826 4000
3826 4255
3826 4422
3827 3838
3827 3843
3827 4572
3827 4911
3828 3833
3828 3847
3828 3940
3829 3849
3830 3832
3830 3835
3830 3836
3830 4212
3830 4503
3831 3833
3831 3838
3831 3840
3832 3840
3832 3843
3833 3845
3833 3846
3833 4961
3835 3837
3835 4316
3835 4974
3836 4943
3836 4965
3837 3843
3837 3848
3837 4133
3838 3839
3838 3844
3838 3845
3838 4427
3838 4835
3839 3843
3840 4069
3840 4787
3841 4904
3843 3848
3843 4056
3844 3847
3844 4784
3844 4806
3845 4021
3845 4469
3847 3849
3847 4245
3848 3849
3848 4600
3848 4671
3848 4908
3849 4055
3849 4611
3850 3857
3850 3864
3850 3865
3850 3869
3850 3880
3850 3883
3850 3893
3851 3855
3851 3858
3851 3862
3851 3870
3851 3880
3851 4139
3851 4783
3852 3862
3852 3869
3852 3873
3852 3878
3852 3881
3852 3885
3852 3887
3852 3888
3852 3892
3852 4050
3852 4054
3852 4087
3852 4587
3853 3857
3853 3869
3853 3876
3853 3877
3853 3882
3853 3885
3853 3893
3853 3895
3853 3897
3853 4098
3854 3876
3854 3880
3854 4333
3855 3872
3855 3874
3855 3884
3855 3886
3855 3895
3856 3880
3856 3886
3856 3890
3856 4299
3856 4694
3857 3877
3857 3891
3857 3892
3858 3860
3858 3873
3858 3881
3858 3888
3858 3895
3859 3860
3859 3889
3859 4837
3860 3868
3860 3898
3860 4638
3861 3862
3861 3867
3861 3879
3862 3869
3862 3870
3862 3875
3862 3891
3862 4061
3863 3881
3864 3872
3864 3877
3864 3891
3864 4353
3864 4392
3865 3875
3865 3886
3866 3894
3866 4585
3866 4756
3867 3870
3867 3874
3867 3887
3867 3889
3867 3899
3868 3874
3868 3885
3868 3889
3868 3891
3868 4821
3868 4992
3869 3870
3869 3874
3869 3890
3869 3895
3870 3875
3870 3887
3870 3889
3870 4429
3871 3873
3871 3882
3871 3894
3872 3883
3872 3887
3872 3892
3872 3893
3872 4557
3873 3881
3874 3887
3875 3885
3875 3889
3875 3893
3875 3897
3876 3877
3876 3881
3877 3878
3877 3893
3877 4160
3877 4298
3877 4735
3878 3879
3878 3880
3878 3882
3878 3887
3878 3894
3878 3898
3878 4098
3878 4432
3878 4505
3879 3880
3879 3886
3879 4928
3880 3891
3880 3896
3880 4358
3881 3884
3881 4155
3882 3886
3882 3890
3882 4307
3883 3892
3883 4777
3884 3899
3884 4018
3884 4719
3885 3886
3885 3896
3886 3888
3886 3891
3886 3962
3887 4781
3889 4578
3890 4472
3890 4584
3890 4823
3891 3895
3891 3897
3891 3898
3891 4863
3892 4990
3893 4203
3896 3897
3897 3899
3897 4097
3897 4662
3898 4216
3899 4404
3900 3904
3900 3928
3900 3938
3900 3939
3900 3942
3900 4476
3900 4503
3901 3940
3901 3941
3902 3907
3902 3932
3902 3933
3902 3935
3903 3905
3903 3910
3903 3916
3903 3917
3903 3921
3903 3925
3903 3930
3903 3936
3903 3937
3904 3907
3904 3917
3904 3930
3904 3947
3904 3948
3905 3944
3905 4394
3906 3913
3906 3923
3906 3933
3906 3936
3906 3937
3906 3938
3906 3940
3906 4785
3907 3916
3907 3920
3907 3923
3908 3917
3908 3942
3908 3947
3908 4916
3909 3910
3909 3915
3909 3924
3909 3941
3909 3944
3909 3947
3910 3918
3910 3922
3910 3930
3910 3940
3910 4305
3911 3920
3911 4316
3911 4421
3912 3914
3912 3916
3912 3927
3913 3927
3913 3928
3914 3922
3914 3924
3914 3931
3915 3921
3915 3938
3915 3941
3915 4329
3915 4542
3916 3935
3917 3918
3917 3922
3917 3929
3917 3945
3917 4051
3918 3938
3918 3944
3919 3922
3919 3946
3920 3944
3920 4909
3921 3923
3921 3931
3921 3942
3921 3943
3921 3949
3921 4582
3922 3928
3922 3937
3922 3948
3923 3932
3923 3939
3923 3944
3923 4711
3924 3937
3924 3939
3924 3942
3924 4888
3924 4951
3925 3930
3925 3938
3926 3927
3926 4469
3927 3938
3927 3943
3927 4073
3927 4135
3928 3939
3928 3940
3928 3942
3928 4732
3929 3943
3930 3940
3930 3941
3931 3941
3931 3943
3932 3933
3932 4418
3932 4545
3932 4764
3932 4846
3932 4942
3933 3934
3933 3935
3934 3936
3934 4863
3935 4066
3935 4109
3936 4715
3936 4827
3937 3949
3938 4157
3938 4828
3939 3941
3941 3946
3942 3944
3942 4622
3943 4937
3944 3949
3944 4309
3944 4888
3945 3949
3945 3976
3946 4349
3947 3948
3947 3978
3947 4876
3949 4007
3949 4857
3950 3951
3950 3968
3950 3977
3950 3982
3950 3990
3950 3992
3950 4699
3951 3960
3951 3962
3951 3968
3951 3990
3951 3995
3951 3999
3952 3961
3952 3967
3953 3955
3953 3959
3953 3978
3953 3992
3953 3994
3953 4729
3954 3970
3954 3982
3955 3977
3955 3979
3955 3981
3955 3996
3955 3997
3956 3960
3956 3961
3956 3963
3956 3985
3956 3990
3956 3991
3956 3996
3956 3998
3956 3999
3957 3978
3957 3985
3957 3988
3957 3991
3957 4786
3958 3982
3958 3987
3958 3990
3958 4067
3958 4414
3959 3977
3959 3980
3959 3983
3959 4176
3960 3975
3961 3970
3961 3983
3961 3996
3962 4416
3963 3993
3963 4303
3964 3973
3964 3986
3964 4915
3965 3967
3965 3976
3965 3999
3965 4014
3966 3986
3966 3993
3966 3997
3967 3974
3967 3983
3967 4155
3967 4376
3967 4749
3968 3969
3968 3989
3969 3973
3969 3976
3969 4713
3969 4751
3969 4785
3970 3982
3970 4429
3971 3973
3971 3976
3971 3980
3971 3981
3971 3984
3971 3989
3971 3994
3972 3974
3972 3983
3972 3996
3972 4360
3973 3975
3973 3980
3974 3975
3974 3976
3974 3980
3974 4832
3975 3976
3975 3980
3975 3984
3975 3985
3975 3991
3975 3995
3975 3999
3976 3977
3976 3991
3976 4090
3976 4841
3977 3979
3977 3981
3977 3984
3977 3992
3978 3997
3978 4904
3979 3998
3979 4089
3979 4091
3979 4894
3980 3999
3981 4495
3982 4464
3982 4620
3983 3996
3984 4945
3985 4647
3986 3987
3986 3998
3986 4074
3987 4697
3988 3992
3988 3997
3988 4449
3989 3995
3990 3997
3990 3998
3990 4542
3992 3998
3992 4250
3992 4834
3992 4933
3994 4058
3994 4796
3996 4143
3996 4843
3997 4808
3998 4177
3998 4261
4000 4008
4000 4012
4001 4012
4001 4016
4001 4023
4001 4025
4001 4386
4002 4022
4002 4029
4002 4044
4002 4048
4002 4895
4003 4007
4003 4011
4003 4024
4003 4036
4003 4039
4003 4041
4003 4123
4003 4139
4004 4010
4004 4020
4004 4040
4004 4049
4004 4123
4005 4027
4005 4039
4005 4047
4005 4974
4006 4011
4006 4013
4006 4031
4006 4042
4006 4695
4007 4017
4007 4022
4007 4029
4007 4069
4007 4265
4008 4011
4008 4017
4008 4038
4008 4381
4008 4770
4009 4012
4009 4020
4009 4025
4009 4045
4009 4252
4010 4014
4010 4020
4010 4024
4010 4041
4010 4046
4010 4802
4010 4906
4011 4014
4011 4017
4011 4030
4011 4043
4011 4047
4012 4016
4012 4028
4012 4037
4012 4039
4012 4048
4013 4030
4013 4048
4014 4019
4014 4020
4014 4021
4014 4022
4014 4025
4014 4045
4014 4046
4014 4048
4014 4442
4015 4035
4015 4037
4015 4040
4016 4029
4016 4034
4017 4020
4017 4031
4017 4037
4017 4048
4017 4049
4018 4035
4018 4041
4018 4047
4019 4026
4019 4041
4020 4040
4020 4495
4020 4536
4021 4030
4021 4031
4021 4044
4021 4049
4021 4455
4022 4036
4022 4049
4023 4033
4024 4026
4024 4039
4024 4041
4024 4046
4024 4047
4024 4238
4024 4569
4025 4031
4025 4044
4025 4047
4025 4161
4025 4464
4026 4584
4027 4034
4027 4038
4027 4863
4027 4989
4028 4039
4028 4040
4028 4047
4030 4035
4030 4038
4030 4043
4030 4045
4030 4639
4031 4040
4031 4048
4031 4060
4031 4296
4031 4911
4032 4039
4032 4457
4032 4717
4033 4857
4036 4044
4036 4049
4037 4039
4037 4040
4037 4043
4037 4512
4037 4604
4037 4744
4038 4048
4038 4231
4038 4315
4038 4497
4038 4589
4040 4877
4041 4046
4042 4046
4042 4817
4046 4139
4048 4547
4048 4745
4049 4707
4049 4808
4049 4906
4050 4054
4050 4055
4050 4058
4050 4072
4050 4081
4050 4083
4050 4097
4051 4095
4051 4096
4052 4071
4052 4078
4052 4091
4052 4094
4053 4065
4053 4071
4053 4072
4053 4077
4053 4079
4053 4082
4053 4084
4053 4092
4053 4219
4053 4725
4054 4075
4054 4083
4054 4660
4055 4056
4055 4058
4055 4060
4055 4072
4055 4076
4055 4083
4055 4087
4055 4088
4055 4094
4055 4097
4055 4191
4056 4057
4056 4066
4056 4077
4056 4079
4056 4081
4056 4098
4056 4099
4057 4076
4057 4096
4057 4098
4057 4655
4057 4675
4058 4069
4058 4279
4058 4430
4058 4805
4059 4080
4059 4088
4060 4062
4060 4065
4060 4076
4060 4078
4060 4085
4060 4097
4060 4098
4060 4099
4061 4062
4061 4065
4061 4090
4061 4130
4061 4612
4062 4069
4062 4078
4062 4086
4062 4096
4062 4098
4062 4244
4062 4995
4063 4072
4063 4084
4063 4094
4063 4229
4064 4084
4064 4098
4065 4076
4065 4079
4065 4088
4065 4093
4066 4068
4066 4069
4066 4079
4066 4082
4066 4090
4066 4096
4067 4080
4067 4081
4067 4089
4068 4076
4068 4077
4068 4084
4068 4086
4069 4095
4070 4076
4070 4082
4070 4132
4071 4086
4071 4091
4071 4092
4073 4079
4073 4089
4073 4092
4073 4815
4073 4919
4074 4083
4074 4654
4074 4693
4074 4727
4075 4082
4075 4093
4075 4096
4076 4085
4076 4094
4076 4548
4076 4739
4077 4086
4077 4087
4077 4090
4078 4096
4078 4098
4078 4325
4078 4628
4078 4870
4078 4908
4079 4084
4079 4090
4079 4877
4080 4084
4080 4088
4080 4089
4080 4092
4080 4094
4081 4084
4081 4099
4081 4111
4082 4084
4082 4094
4083 4084
4083 4095
4084 4374
4085 4088
4085 4098
4086 4098
4087 4093
4087 4099
4087 4390
4088 4089
4088 4095
4088 4438
4089 4098
4089 4867
4090 4968
4091 4096
4091 4306
4092 4096
4092 4154
4092 4458
4092 4464
4093 4550
4093 4584
4094 4096
4094 4617
4094 4934
4097 4099
4098 4465
4098 4568
4098 4614
4100 4109
4100 4111
4100 4120
4100 4130
4100 4149
4100 4978
4101 4109
4101 4116
4101 4139
4101 4149
4101 4745
4101 4847
4102 4104
4102 4108
4102 4111
4102 4131
4102 4133
4102 4378
4103 4110
4103 4115
4103 4142
4103 4534
4104 4106
4104 4121
4104 4123
4104 4137
4104 4139
4104 4183
4105 4145
4105 4147
4105 4344
4105 4621
4105 4645
4106 4123
4106 4124
4106 4127
4106 4137
4106 4549
4107 4112
4107 4119
4107 4126
4107 4129
4107 4134
4107 4145
4107 4313
4108 4116
4108 4136
4108 4138
4108 4140
4108 4142
4108 4692
4108 4837
4109 4126
4109 4130
4109 4132
4109 4136
4109 4142
4109 4149
4109 4426
4110 4112
4110 4117
4110 4121
4110 4149
4110 4439
4110 4519
4111 4113
4111 4116
4111 4121
4111 4123
4111 4748
4112 4113
4112 4118
4113 4128
4113 4137
4113 4140
4113 4146
4114 4127
4114 4129
4114 4130
4114 4133
4114 4143
4115 4126
4115 4129
4115 4131
4116 4141
4116 4143
4117 4124
4117 4145
4117 4147
4117 4167
4118 4130
4118 4142
4118 4145
4118 4147
4118 4815
4119 4123
4119 4126
4119 4143
4119 4145
4120 4128
4120 4130
4120 4139
4120 4142
4120 4372
4121 4129
4121 4133
4121 4146
4121 4287
4121 4563
4122 4130
4122 4139
4122 4147
4122 4485
4122 4684
4123 4146
4124 4137
4124 4141
4124 4227
4124 4788
4125 4132
4125 4137
4125 4148
4125 4897
4126 4130
4126 4135
4126 4146
4126 4148
4126 4149
4126 4757
4126 4918
4127 4129
4127 4133
4127 4134
4127 4141
4127 4877
4128 4135
4128 4138
4128 4139
4128 4142
4128 4146
4129 4147
4129 4333
4130 4138
4130 4145
4130 4237
4130 4344
4131 4205
4131 4821
4132 4145
4132 4156
4132 4752
4133 4925
4134 4143
4134 4148
4134 4919
4134 4964
4135 4513
4136 4138
4136 4619
4137 4143
4137 4144
4138 4141
4138 4145
4138 4147
4138 4743
4139 4141
4139 4142
4139 4144
4139 4629
4140 4144
4140 4146
4140 4148
4140 4869
4141 4144
4141 4291
4142 4146
4143 4147
4143 4369
4144 4476
4148 4803
4150 4158
4150 4169
4150 4182
4150 4184
4150 4187
4151 4154
4151 4157
4151 4158
4151 4163
4151 4165
4151 4170
4151 4172
4151 4173
4151 4178
4151 4180
4151 4236
4151 4509
4151 4927
4152 4161
4152 4173
4153 4158
4153 4169
4153 4171
4153 4177
4153 4186
4153 4187
4154 4167
4154 4176
4154 4177
4154 4179
4154 4185
4154 4186
4154 4188
4154 4196
4155 4157
4155 4161
4155 4162
4155 4163
4155 4170
4155 4183
4155 4190
4155 4192
4155 4827
4156 4182
4156 4185
4156 4194
4156 4273
4157 4158
4157 4164
4157 4171
4157 4173
4157 4179
4157 4180
4157 4185
4157 4197
4157 4414
4157 4860
4158 4170
4158 4178
4158 4180
4158 4187
4158 4532
4158 4640
4159 4162
4159 4177
4159 4179
4159 4183
4159 4191
4159 4192
4159 4518
4160 4169
4160 4173
4160 4179
4160 4183
4160 4211
4160 4459
4160 4970
4160 4999
4161 4162
4161 4163
4161 4176
4161 4182
4161 4186
4162 4188
4162 4196
4162 4946
4162 4978
4163 4165
4163 4167
4163 4182
4163 4185
4163 4188
4163 4194
4163 4195
4163 4267
4163 4359
4163 4993
4164 4168
4164 4187
4165 4188
4165 4740
4165 4754
4165 4974
4166 4191
4166 4323
4166 4649
4166 4752
4167 4173
4167 4184
4167 4187
4168 4184
4168 4185
4168 4198
4168 4688
4169 4188
4169 4195
4169 4196
4170 4177
4170 4186
4171 4184
4171 4185
4171 4187
4171 4198
4171 4199
4171 4356
4172 4360
4173 4192
4173 4199
4174 4181
4174 4189
4174 4191
4174 4462
4174 4643
4175 4495
4176 4782
4177 4183
4177 4190
4177 4192
4177 4198
4177 4241
4177 4570
4178 4188
4178 4192
4179 4190
4179 4195
4179 4196
4179 4197
4180 4182
4180 4184
4180 4199
4180 4203
4180 4612
4180 4720
4181 4189
4182 4186
4182 4190
4182 4192
4182 4199
4184 4198
4185 4189
4185 4195
4185 4463
4187 4188
4187 4197
4187 4236
4188 4199
4188 4954
4189 4667
4189 4762
4189 4810
4190 4194
4190 4815
4191 4199
4191 4592
4192 4197
4193 4813
4194 4195
4195 4235
4195 4536
4197 4198
4197 4427
4199 4471
4200 4218
4200 4226
4200 4230
4200 4233
4200 4236
4200 4249
4201 4206
4201 4209
4201 4227
4201 4248
4202 4216
4202 4235
4203 4214
4203 4228
4203 4248
4203 4545
4204 4213
4204 4218
4204 4233
4204 4234
4204 4241
4205 4222
4205 4236
4205 4244
4205 4247
4206 4208
4206 4220
4206 4226
4206 4239
4206 4242
4207 4208
4207 4212
4207 4232
4207 4238
4207 4246
4207 4977
4208 4224
4208 4233
4208 4249
4209 4231
4209 4233
4209 4236
4210 4214
4210 4221
4210 4229
4210 4233
4210 4235
4210 4243
4211 4228
4211 4232
4211 4237
4211 4411
4211 4943
4212 4219
4212 4229
4212 4235
4212 4242
4212 4374
4212 4945
4213 4215
4213 4219
4213 4225
4213 4235
4213 4238
4213 4248
4213 4613
4214 4239
4214 4249
4215 4229
4215 4633
4215 4906
4216 4221
4216 4234
4216 4241
4216 4535
4217 4229
4217 4234
4217 4839
4218 4220
4218 4228
4218 4236
4218 4239
4218 4244
4218 4247
4219 4222
4219 4228
4219 4240
4219 4244
4220 4225
4220 4226
4220 4233
4220 4234
4220 4370
4220 4401
4220 4487
4221 4246
4221 4277
4221 4624
4222 4229
4222 4242
4222 4608
4223 4224
4223 4226
4223 4603
4224 4225
4224 4236
4224 4512
4224 4626
4225 4240
4225 4245
4226 4233
4226 4496
4227 4229
4227 4231
4227 4237
4227 4243
4227 4248
4228 4229
4228 4232
4228 4238
4228 4241
4228 4242
4229 4246
4230 4242
4231 4242
4231 4245
4231 4248
4231 4746
4232 4234
4232 4235
4233 4248
4234 4244
4234 4245
4234 4246
4234 4247
4234 4392
4234 4621
4234 4806
4235 4237
4235 4247
4235 4345
4235 4633
4235 4906
4237 4249
4237 4455
4237 4913
4239 4587
4240 4562
4240 4633
4240 4719
4241 4246
4241 4247
4241 4329
4241 4538
4241 4638
4242 4246
4242 4276
4242 4455
4242 4553
4242 4606
4242 4721
4243 4246
4244 4432
4244 4450
4245 4248
4245 4965
4250 4253
4250 4258
4250 4259
4250 4262
4250 4265
4250 4278
4250 4294
4250 4608
4251 4263
4251 4265
4251 4284
4251 4299
4252 4259
4252 4280
4252 4290
4252 4299
4253 4258
4253 4270
4253 4283
4253 4288
4253 4292
4253 4296
4254 4271
4254 4280
4254 4297
4254 4924
4255 4259
4255 4263
4255 4275
4255 4278
4255 4281
4255 4287
4255 4289
4256 4260
4256 4263
4256 4268
4256 4271
4256 4277
4256 4278
4256 4279
4256 4298
4257 4261
4257 4264
4257 4266
4257 4274
4258 4279
4258 4282
4258 4285
4258 4602
4258 4757
4259 4263
4259 4288
4259 4291
4259 4596
4259 4672
4260 4263
4260 4276
4260 4281
4260 4283
4260 4289
4260 4296
4261 4274
4261 4276
4261 4281
4261 4287
4261 4291
4261 4295
4261 4928
4262 4266
4262 4285
4262 4287
4263 4288
4263 4294
4264 4269
4264 4284
4264 4288
4264 4292
4264 4348
4265 4276
4265 4286
4265 4287
4265 4299
4266 4269
4266 4282
4266 4286
4267 4289
4268 4269
4268 4270
4268 4272
4268 4276
4268 4290
4268 4294
4268 4675
4269 4273
4269 4277
4269 4278
4269 4282
4269 4293
4269 4294
4269 4393
4270 4279
4270 4285
4270 4295
4270 4349
4272 4766
4273 4276
4273 4471
4274 4280
4274 4287
4274 4298
4275 4285
4275 4290
4276 4277
4276 4279
4276 4290
4277 4378
4278 4285
4278 4297
4278 4299
4279 4287
4279 4289
4279 4298
4279 4299
4280 4282
4280 4287
4280 4293
4280 4517
4281 4288
4282 4288
4282 4294
4283 4347
4284 4297
4284 4298
4286 4633
4286 4879
4287 4348
4289 4965
4290 4294
4290 4789
4291 4296
4292 4453
4295 4298
4295 4388
4295 4528
4295 4593
4295 4847
4295 4894
4297 4298
4297 4299
4297 4560
4298 4601
4299 4624
4300 4325
4300 4348
4301 4302
4301 4307
4301 4310
4301 4314
4301 4325
4301 4329
4301 4339
4301 4345
4301 4349
4301 4468
4301 4802
4301 4867
4302 4304
4302 4306
4302 4321
4302 4322
4302 4331
4302 4335
4302 4337
4302 4559
4303 4308
4303 4310
4303 4337
4303 4410
4304 4332
4304 4339
4304 4346
4304 4348
4305 4310
4305 4312
4305 4321
4305 4331
4305 4334
4306 4322
4306 4340
4306 4345
4307 4325
4307 4328
4307 4338
4307 4347
4307 4349
4308 4327
4308 4332
4308 4335
4309 4313
4309 4315
4309 4323
4309 4326
4309 4338
4309 4349
4310 4319
4310 4465
4311 4325
4311 4339
4311 4342
4312 4315
4313 4320
4313 4330
4313 4343
4313 4673
4314 4315
4314 4317
4314 4318
4314 4324
4314 4340
4315 4329
4316 4317
4316 4342
4317 4318
4317 4325
4317 4332
4317 4919
4318 4325
4318 4332
4318 4337
4318 4817
4319 4330
4319 4335
4319 4348
4319 4471
4320 4333
4320 4344
4320 4346
4321 4324
4321 4346
4321 4975
4322 4335
4322 4336
4322 4341
4323 4338
4323 4347
4324 4340
4324 4345
4324 4349
4325 4332
4325 4342
4325 4346
4325 4518
4326 4333
4326 4480
4327 4336
4327 4344
4327 4349
4328 4329
4328 4807
4329 4335
4329 4337
4329 4924
4330 4331
4330 4338
4330 4344
4330 4883
4331 4333
4331 4335
4331 4336
4331 4337
4331 4746
4332 4334
4332 4336
4332 4340
4333 4965
4334 4347
4334 4633
4334 4821
4335 4344
4335 4821
4336 4338
4336 4342
4336 4346
4337 4338
4337 4339
4337 4347
4338 4347
4338 4348
4338 4678
4339 4345
4340 4344
4340 4880
4341 4343
4341 4471
4342 4345
4343 4375
4343 4794
4347 4630
4347 4780
4350 4360
4350 4375
4351 4357
4351 4361
4351 4364
4351 4378
4351 4386
4351 4398
4352 4356
4352 4359
4352 4377
4352 4378
4352 4380
4353 4355
4353 4361
4353 4362
4353 4370
4353 4378
4353 4380
4353 4397
4354 4390
4354 4391
4354 4396
4354 4398
4355 4365
4355 4369
4355 4375
4355 4388
4355 4389
4355 4390
4355 4399
4356 4369
4356 4375
4356 4378
4356 4382
4356 4390
4356 4392
4356 4988
4357 4358
4357 4359
4357 4376
4357 4379
4358 4361
4358 4371
4358 4524
4360 4368
4360 4376
4360 4387
4360 4399
4360 4838
4361 4379
4361 4383
4362 4372
4362 4381
4362 4388
4363 4371
4363 4376
4363 4378
4363 4384
4363 4392
4363 4394
4363 4396
4364 4365
4364 4375
4364 4380
4364 4382
4364 4387
4365 4366
4365 4384
4365 4394
4365 4395
4365 4972
4366 4367
4366 4374
4366 4387
4366 4389
4366 4905
4367 4371
4367 4381
4367 4382
4367 4389
4367 4392
4367 4589
4368 4386
4368 4389
4368 4392
4368 4396
4368 4580
4369 4379
4369 4394
4370 4376
4370 4388
4370 4392
4370 4399
4371 4378
4371 4379
4371 4393
4371 4394
4371 4397
4372 4377
4372 4379
4372 4391
4372 4392
4372 4394
4373 4379
4373 4386
4373 4388
4373 4393
4373 4396
4374 4378
4374 4384
4375 4378
4375 4379
4375 4382
4375 4384
4375 4386
4375 4881
4376 4386
4376 4391
4376 4656
4377 4381
4377 4382
4377 4394
4377 4395
4378 4379
4378 4389
4378 4868
4379 4388
4379 4393
4379 4398
4380 4389
4380 4740
4382 4393
4383 4395
4383 4398
4383 4776
4384 4618
4384 4976
4385 4386
4385 4397
4385 4724
4385 4874
4387 4388
4387 4392
4388 4389
4389 4398
4389 4943
4390 4413
4390 4674
4390 4797
4392 4398
4394 4395
4394 4396
4395 4396
4395 4397
4395 4620
4397 4701
4398 4505
4400 4405
4400 4419
4400 4424
4400 4429
4401 4407
4401 4410
4401 4426
4401 4435
4401 4448
4402 4426
4402 4430
4402 4434
4402 4436
4402 4442
4403 4426
4403 4501
4404 4405
4404 4410
4404 4413
4404 4414
4404 4419
4404 4420
4404 4427
4404 4428
4404 4429
4404 4431
4404 4442
4404 4447
4404 4449
4405 4420
4405 4425
4405 4427
4405 4447
4406 4408
4406 4418
4406 4433
4406 4447
4407 4414
4407 4968
4408 4421
4408 4428
4408 4444
4408 4448
4409 4415
4409 4434
4409 4437
4410 4418
4410 4425
4410 4446
4411 4421
4411 4447
4412 4415
4412 4416
4412 4422
4412 4446
4413 4415
4413 4420
4413 4437
4413 4446
4413 4514
4413 4521
4414 4421
4414 4436
4415 4421
4415 4424
4415 4426
4415 4428
4415 4435
4415 4437
4415 4445
4415 4446
4415 4767
4415 4849
4416 4421
4416 4424
4417 4424
4417 4429
4417 4432
4417 4888
4418 4420
4418 4423
4418 4427
4418 4428
4418 4566
4419 4421
4419 4427
4419 4439
4419 4448
4419 4758
4420 4425
4420 4440
4420 4971
4421 4430
4421 4435
4422 4432
4423 4427
4423 4434
4423 4437
4423 4442
4423 4446
4423 4808
4424 4445
4424 4898
4425 4428
4425 4437
4425 4449
4425 4970
4426 4428
4426 4433
4426 4436
4426 4443
4426 4446
4427 4428
4427 4430
4427 4431
4427 4435
4427 4438
4428 4438
4428 4448
4428 4545
4430 4431
4430 4436
4430 4445
4430 4447
4430 4922
4431 4446
4432 4434
4432 4444
4433 4435
4433 4439
4433 4446
4433 4690
4434 4444
4435 4445
4435 4446
4436 4443
4436 4446
4437 4897
4438 4441
4438 4641
4439 4449
4439 4693
4439 4696
4440 4804
4441 4448
4442 4448
4442 4975
4444 4447
4449 4583
4449 4822
4450 4452
4450 4458
4450 4462
4450 4475
4450 4479
4450 4492
4451 4481
4451 4544
4452 4454
4452 4464
4452 4471
4452 4498
4453 4462
4453 4466
4453 4472
4453 4481
4453 4492
4453 4495
4453 4745
4453 4947
4454 4459
4454 4460
4454 4467
4454 4472
4454 4473
4455 4458
4455 4497
4456 4462
4456 4466
4456 4485
4456 4488
4456 4498
4457 4465
4457 4472
4457 4476
4457 4484
4457 4487
4457 4488
4457 4493
4457 4497
4457 4498
4457 4545
4458 4466
4458 4469
4458 4474
4458 4496
4459 4468
4459 4495
4460 4464
4460 4469
4460 4483
4461 4463
4461 4471
4461 4473
4461 4481
4461 4491
4462 4468
4462 4483
4462 4494
4463 4465
4463 4475
4463 4483
4463 4499
4464 4475
4464 4476
4465 4475
4465 4488
4465 4491
4466 4469
4466 4486
4466 4496
4466 4499
4467 4468
4467 4469
4467 4472
4467 4488
4467 4492
4467 4760
4468 4479
4468 4485
4469 4471
4469 4480
4469 4481
4469 4488
4469 4498
4469 4821
4470 4495
4470 4613
4471 4478
4471 4489
4471 4495
4471 4496
4471 4497
4471 4499
4471 4518
4471 4890
4472 4480
4472 4485
4472 4492
4472 4495
4472 4499
4472 4943
4473 4477
4473 4480
4473 4487
4474 4476
4475 4485
4475 4489
4475 4492
4475 4493
4476 4485
4477 4481
4477 4490
4477 4494
4477 4496
4477 4943
4478 4485
4478 4488
4478 4496
4479 4480
4479 4481
4479 4488
4480 4482
4480 4484
4482 4490
4482 4499
4483 4488
4483 4492
4483 4494
4483 4496
4483 4498
4484 4878
4485 4497
4487 4581
4488 4493
4488 4496
4488 4498
4490 4494
4494 4498
4495 4748
4496 4522
4496 4533
4499 4737
4500 4511
4500 4541
4500 4920
4501 4505
4501 4520
4501 4526
4501 4535
4501 4538
4502 4508
4502 4511
4502 4516
4502 4519
4502 4528
4502 4531
4502 4544
4502 4546
4503 4509
4503 4511
4503 4528
4503 4537
4503 4538
4503 4967
4504 4507
4504 4522
4504 4527
4504 4535
4504 4544
4504 4549
4505 4524
4505 4634
4506 4507
4506 4521
4506 4533
4506 4637
4507 4520
4507 4524
4507 4533
4507 4534
4507 4542
4507 4547
4508 4509
4508 4517
4508 4520
4508 4522
4508 4539
4508 4543
4509 4512
4509 4532
4509 4541
4509 4544
4510 4512
4510 4523
4510 4531
4510 4534
4510 4535
4510 4843
4511 4526
4511 4530
4511 4532
4511 4542
4512 4513
4512 4546
4512 4804
4513 4525
4513 4529
4513 4532
4513 4534
4513 4986
4514 4535
4515 4516
4515 4520
4515 4523
4515 4525
4515 4699
4516 4528
4516 4530
4516 4543
4516 4548
4517 4532
4518 4519
4518 4525
4518 4530
4518 4532
4518 4536
4518 4546
4518 4549
4519 4534
4520 4546
4520 4891
4521 4528
4521 4534
4521 4537
4521 4898
4522 4525
4522 4530
4522 4541
4522 4549
4522 4915
4523 4527
4523 4529
4523 4534
4523 4537
4523 4543
4524 4525
4524 4536
4524 4543
4524 4769
4525 4526
4525 4546
4527 4543
4527 4546
4527 4557
4528 4538
4529 4538
4529 4541
4529 4544
4530 4531
4531 4908
4532 4546
4532 4549
4533 4547
4534 4544
4536 4538
4536 4539
4536 4547
4537 4538
4537 4549
4537 4802
4538 4544
4538 4545
4538 4546
4538 4835
4539 4853
4540 4547
4541 4545
4541 4682
4541 4853
4541 4991
4543 4548
4543 4549
4544 4548
4546 4547
4546 4548
4547 4761
4547 4797
4549 4949
4550 4551
4550 4565
4550 4567
4550 4572
4550 4574
4550 4578
4551 4581
4551 4593
4551 4595
4551 4599
4551 4631
4552 4562
4552 4564
4552 4567
4552 4577
4552 4597
4552 4598
4552 4860
4553 4557
4553 4562
4553 4575
4553 4581
4553 4594
4553 4595
4554 4559
4554 4561
4554 4562
4554 4570
4554 4572
4554 4573
4554 4582
4554 4589
4554 4664
4555 4556
4555 4560
4555 4574
4555 4578
4555 4581
4555 4586
4555 4594
4555 4827
4556 4575
4556 4580
4556 4591
4557 4570
4557 4578
4557 4582
4557 4591
4558 4562
4558 4565
4558 4573
4558 4592
4558 4593
4558 4599
4559 4561
4559 4573
4559 4576
4559 4584
4560 4575
4560 4579
4560 4587
4560 4589
4560 4591
4561 4575
4561 4577
4561 4584
4561 4593
4561 4594
4562 4566
4562 4575
4562 4581
4562 4588
4562 4598
4562 4753
4563 4569
4564 4565
4564 4579
4564 4707
4565 4567
4565 4599
4567 4580
4567 4583
4567 4584
4567 4596
4567 4647
4568 4575
4568 4592
4568 4667
4569 4570
4569 4582
4569 4584
4569 4597
4570 4581
4570 4594
4571 4575
4571 4581
4571 4588
4571 4596
4571 4738
4571 4806
4571 4863
4571 4959
4572 4574
4572 4589
4573 4579
4573 4582
4573 4583
4573 4585
4573 4588
4573 4590
4573 4592
4573 4598
4574 4580
4574 4597
4575 4576
4575 4584
4575 4589
4576 4584
4576 4589
4576 4590
4576 4595
4576 4596
4576 4700
4577 4578
4577 4579
4577 4580
4577 4587
4577 4593
4577 4774
4577 4977
4578 4588
4578 4594
4579 4587
4580 4963
4581 4584
4581 4586
4582 4584
4582 4592
4583 4593
4583 4743
4583 4787
4584 4595
4584 4596
4584 4622
4585 4591
4585 4599
4586 4590
4587 4589
4588 4591
4589 4597
4589 4871
4590 4593
4590 4688
4591 4593
4592 4820
4592 4977
4594 4598
4595 4680
4596 4599
4597 4599
4599 4884
4600 4601
4600 4614
4600 4618
4600 4624
4600 4632
4600 4636
4600 4637
4600 4641
4600 4644
4601 4608
4601 4609
4601 4617
4601 4647
4601 4648
4601 4649
4602 4603
4602 4608
4602 4609
4602 4619
4602 4632
4602 4649
4603 4605
4603 4611
4603 4614
4603 4642
4604 4621
4604 4624
4604 4629
4604 4640
4604 4643
4605 4610
4605 4611
4605 4624
4605 4627
4605 4641
4605 4645
4605 4649
4605 4903
4605 4972
4606 4608
4606 4613
4606 4616
4606 4619
4606 4628
4606 4643
4606 4647
4606 4648
4607 4617
4607 4632
4607 4641
4607 4643
4607 4645
4608 4828
4609 4611
4609 4615
4609 4623
4609 4626
4609 4630
4609 4636
4609 4643
4609 4649
4609 4762
4610 4617
4610 4625
4611 4627
4611 4639
4611 4918
4612 4617
4613 4616
4613 4622
4613 4649
4613 4666
4613 4732
4614 4616
4614 4627
4614 4633
4614 4641
4615 4621
4615 4626
4615 4634
4615 4637
4615 4643
4615 4649
4616 4640
4616 4643
4616 4648
4616 4899
4617 4626
4617 4628
4617 4629
4617 4631
4617 4639
4617 4760
4618 4621
4618 4623
4618 4630
4618 4957
4618 4959
4619 4620
4619 4621
4619 4628
4619 4629
4619 4638
4619 4639
4620 4624
4620 4843
4621 4622
4621 4626
4621 4632
4621 4636
4621 4638
4621 4645
4622 4627
4622 4631
4622 4639
4622 4647
4623 4643
4624 4638
4624 4639
4624 4647
4625 4635
4625 4637
4625 4644
4626 4753
4626 4890
4627 4891
4628 4633
4629 4639
4629 4642
4629 4645
4629 4647
4629 4648
4629 4649
4630 4637
4630 4644
4630 4647
4630 4649
4631 4635
4632 4633
4632 4643
4632 4646
4633 4634
4633 4637
4633 4639
4633 4645
4633 4779
4634 4642
4634 4647
4635 4636
4636 4642
4636 4646
4637 4640
4637 4643
4637 4648
4639 4641
4639 4643
4640 4641
4640 4979
4641 4643
4643 4644
4644 4645
4645 4647
4645 4883
4645 4908
4645 4976
4646 4841
4650 4653
4650 4662
4650 4663
4650 4664
4650 4665
4650 4678
4651 4664
4651 4675
4651 4699
4652 4664
4652 4671
4652 4675
4652 4699
4653 4686
4653 4745
4654 4655
4654 4661
4654 4663
4654 4666
4654 4671
4654 4678
4654 4689
4654 4691
4655 4661
4655 4679
4655 4680
4655 4683
4655 4699
4655 4780
4656 4660
4656 4673
4656 4693
4657 4661
4657 4666
4658 4667
4658 4669
4658 4671
4658 4692
4659 4664
4659 4676
4659 4677
4659 4688
4659 4696
4660 4662
4660 4665
4660 4667
4660 4674
4660 4686
4660 4699
4661 4670
4661 4676
4661 4688
4661 4699
4662 4670
4662 4671
4662 4681
4662 4685
4662 4691
4662 4692
4662 4698
4662 4867
4663 4669
4663 4675
4663 4677
4663 4695
4663 4782
4663 4890
4664 4665
4664 4683
4664 4684
4664 4685
4664 4686
4664 4697
4664 4724
4665 4670
4665 4683
4665 4776
4665 4835
4665 4877
4666 4672
4666 4681
4666 4764
4667 4671
4668 4675
4668 4678
4668 4686
4668 4691
4668 4698
4669 4672
4669 4675
4670 4686
4670 4692
4670 4694
4671 4677
4671 4685
4671 4696
4671 4699
4671 4733
4672 4692
4673 4689
4673 4969
4674 4686
4674 4689
4675 4689
4675 4691
4675 4693
4677 4680
4677 4687
4678 4681
4678 4688
4678 4798
4679 4682
4679 4695
4679 4697
4680 4693
4680 4698
4682 4686
4682 4690
4682 4698
4682 4785
4683 4697
4684 4696
4685 4689
4685 4695
4685 4698
4685 4699
4687 4696
4687 4697
4688 4696
4688 4698
4689 4703
4690 4697
4691 4692
4691 4840
4691 4995
4693 4699
4694 4699
4700 4726
4700 4737
4700 4801
4701 4709
4701 4717
4701 4729
4701 4737
4702 4703
4703 4706
4703 4716
4703 4717
4703 4719
4703 4722
4704 4710
4704 4722
4704 4730
4704 4739
4704 4936
4705 4727
4705 4737
4705 4745
4705 4749
4706 4710
4706 4714
4706 4715
4706 4718
4706 4721
4706 4734
4706 4747
4707 4710
4707 4712
4707 4717
4707 4729
4707 4743
4710 4736
4710 4738
4710 4739
4710 4740
4710 4748
4711 4725
4711 4747
4712 4726
4712 4737
4713 4715
4713 4726
4713 4732
4713 4736
4713 4737
4713 4739
4713 4743
4714 4719
4714 4735
4714 4738
4714 4951
4714 4983
4715 4724
4715 4726
4715 4728
4715 4730
4715 4735
4715 4742
4715 4746
4716 4718
4716 4719
4716 4738
4717 4720
4717 4721
4718 4724
4718 4732
4718 4737
4718 4740
4719 4723
4719 4736
4719 4741
4720 4731
4720 4734
4721 4726
4721 4729
4721 4732
4721 4736
4722 4723
4722 4734
4722 4737
4722 4741
4723 4738
4723 4743
4724 4728
4725 4737
4725 4740
4725 4746
4726 4738
4726 4854
4727 4728
4727 4737
4727 4748
4728 4730
4728 4737
4728 4746
4729 4743
4729 4745
4729 4746
4729 4919
4730 4735
4730 4746
4730 4748
4731 4732
4731 4737
4732 4741
4732 4781
4734 4746
4735 4744
4735 4747
4737 4743
4737 4745
4737 4749
4737 4968
4738 4747
4740 4748
4742 4762
4743 4748
4746 4747
4746 4748
4747 4749
4748 4749
4750 4753
4750 4763
4750 4765
4750 4771
4750 4773
4750 4780
4750 4789
4751 4761
4751 4769
4751 4779
4751 4780
4751 4785
4752 4775
4752 4782
4752 4785
4752 4789
4753 4769
4753 4772
4753 4781
4753 4785
4753 4793
4753 4799
4753 4977
4754 4755
4754 4758
4754 4759
4754 4767
4754 4791
4755 4757
4755 4758
4755 4764
4755 4781
4756 4763
4756 4767
4756 4770
4756 4776
4757 4782
4757 4792
4758 4769
4758 4776
4758 4777
4758 4780
4759 4760
4759 4782
4759 4792
4759 4796
4760 4781
4760 4786
4760 4789
4760 4790
4760 4798
4761 4766
4761 4768
4761 4774
4761 4797
4762 4765
4762 4779
4762 4787
4762 4790
4763 4765
4763 4768
4763 4773
4763 4777
4763 4783
4763 4795
4763 4797
4764 4770
4764 4772
4764 4781
4764 4798
4765 4768
4765 4777
4765 4784
4765 4796
4766 4797
4767 4769
4767 4781
4767 4797
4767 4956
4768 4772
4768 4777
4768 4786
4768 4787
4768 4789
4769 4778
4769 4780
4769 4784
4769 4794
4769 4798
4770 4773
4770 4794
4770 4798
4771 4779
4771 4798
4771 4939
4772 4778
4773 4782
4773 4786
4774 4778
4774 4791
4774 4950
4775 4782
4775 4796
4775 4798
4776 4777
4776 4794
4776 4839
4776 4925
4777 4780
4777 4788
4777 4798
4778 4793
4778 4796
4779 4795
4779 4798
4780 4794
4780 4799
4781 4782
4781 4793
4782 4783
4782 4850
4783 4785
4783 4786
4784 4787
4784 4799
4784 4921
4785 4793
4786 4797
4787 4791
4788 4789
4788 4792
4788 4797
4788 4917
4791 4799
4791 4968
4792 4948
4794 4798
4799 4833
4800 4813
4800 4839
4800 4849
4801 4818
4801 4823
4801 4847
4801 4984
4802 4808
4802 4821
4802 4829
4802 4837
4802 4984
4803 4804
4803 4805
4803 4821
4803 4831
4803 4832
4803 4833
4803 4841
4804 4824
4804 4831
4804 4832
4804 4843
4805 4806
4805 4808
4805 4811
4805 4814
4805 4829
4805 4849
4806 4821
4806 4827
4806 4901
4807 4810
4807 4822
4807 4837
4807 4838
4808 4812
4808 4814
4808 4823
4808 4827
4808 4846
4809 4826
4810 4811
4810 4814
4810 4818
4810 4820
4810 4822
4810 4827
4810 4831
4810 4843
4811 4827
4811 4828
4812 4813
4812 4826
4813 4821
4813 4846
4813 4847
4813 4849
4814 4831
4814 4832
4814 4843
4814 4844
4815 4819
4815 4839
4816 4817
4816 4846
4817 4951
4818 4838
4818 4839
4819 4821
4819 4832
4819 4841
4820 4823
4820 4837
4820 4843
4821 4845
4821 4849
4823 4826
4823 4830
4823 4833
4824 4829
4824 4876
4825 4826
4826 4830
4826 4838
4826 4847
4826 4849
4827 4838
4828 4829
4828 4835
4828 4837
4828 4844
4828 4967
4830 4833
4831 4833
4831 4844
4832 4838
4832 4845
4832 4848
4833 4839
4833 4849
4834 4838
4834 4840
4835 4844
4835 4846
4837 4838
4838 4849
4838 4877
4839 4842
4839 4847
4840 4994
4841 4844
4841 4846
4841 4848
4843 4845
4843 4848
4844 4849
4848 4898
4850 4851
4850 4860
4850 4865
4850 4874
4850 4884
4850 4892
4850 4899
4851 4854
4851 4863
4851 4874
4851 4875
4851 4886
4851 4889
4851 4892
4851 4894
4852 4892
4853 4866
4853 4868
4853 4870
4853 4874
4853 4877
4853 4881
4853 4887
4853 4893
4853 4894
4854 4864
4854 4883
4854 4887
4854 4889
4854 4895
4855 4857
4855 4874
4855 4882
4855 4885
4855 4898
4856 4865
4856 4882
4857 4860
4857 4861
4857 4867
4857 4894
4858 4879
4858 4883
4859 4866
4859 4883
4859 4892
4859 4893
4860 4873
4860 4878
4860 4885
4860 4891
4860 4898
4861 4876
4861 4881
4861 4896
4862 4876
4862 4882
4862 4895
4862 4897
4862 4979
4863 4866
4863 4875
4863 4884
4863 4892
4864 4895
4864 4899
4865 4869
4865 4892
4866 4877
4866 4880
4866 4892
4866 4895
4867 4874
4867 4883
4867 4890
4868 4876
4868 4882
4868 4884
4868 4895
4868 4897
4868 4914
4869 4871
4869 4893
4869 4897
4869 4898
4870 4896
4871 4879
4871 4891
4872 4874
4872 4886
4872 4887
4872 4895
4872 4897
4873 4875
4873 4877
4873 4891
4874 4878
4874 4892
4874 4896
4874 4897
4875 4876
4875 4884
4876 4899
4877 4884
4877 4889
4877 4891
4877 4892
4877 4974
4878 4886
4878 4895
4878 4897
4879 4892
4879 4893
4879 4898
4880 4882
4880 4888
4882 4883
4882 4885
4884 4888
4885 4891
4886 4892
4887 4889
4887 4891
4887 4897
4888 4899
4889 4890
4889 4895
4889 4896
4890 4892
4890 4894
4890 4898
4892 4894
4893 4896
4893 4973
4894 4963
4900 4908
4900 4927
4900 4948
4901 4928
4901 4931
4901 4949
4902 4922
4902 4923
4902 4931
4902 4932
4903 4921
4903 4926
4903 4930
4903 4937
4903 4940
4904 4917
4904 4932
4904 4938
4904 4946
4905 4936
4905 4941
4905 4948
4906 4913
4906 4916
4906 4918
4906 4924
4906 4933
4906 4935
4906 4940
4906 4948
4907 4913
4907 4921
4907 4937
4907 4938
4907 4942
4907 4947
4907 4953
4908 4941
4908 4946
4910 4914
4910 4918
4910 4926
4910 4931
4910 4934
4910 4937
4910 4943
4911 4915
4911 4919
4911 4941
4911 4944
4912 4921
4913 4918
4913 4928
4913 4933
4914 4923
4914 4938
4914 4953
4915 4943
4915 4944
4915 4946
4916 4923
4916 4930
4916 4936
4916 4942
4916 4943
4917 4926
4917 4930
4917 4935
4917 4937
4917 4940
4917 4949
4918 4946
4919 4930
4919 4935
4919 4948
4920 4923
4920 4925
4920 4930
4920 4931
4920 4937
4920 4941
4920 4942
4921 4922
4921 4929
4921 4933
4921 4939
4921 4945
4922 4934
4922 4939
4922 4945
4923 4927
4923 4930
4923 4931
4923 4936
4924 4943
4924 4948
4925 4928
4926 4929
4927 4933
4927 4936
4927 4940
4928 4931
4928 4936
4928 4938
4928 4941
4928 4946
4929 4984
4930 4931
4930 4942
4930 4943
4931 4937
4931 4944
4932 4938
4932 4941
4933 4941
4933 4947
4934 4935
4934 4949
4936 4942
4936 4944
4938 4941
4938 4943
4938 4949
4939 4948
4941 4943
4944 4945
4945 4948
4948 4979
4950 4958
4950 4961
4950 4980
4950 4984
4950 4985
4951 4961
4951 4978
4951 4986
4952 4957
4952 4972
4952 4973
4952 4982
4952 4986
4952 4987
4952 4990
4952 4992
4953 4967
4953 4976
4953 4979
4953 4983
4953 4990
4953 4991
4954 4960
4954 4974
4954 4976
4955 4971
4956 4972
4956 4978
4956 4982
4956 4992
4956 4996
4957 4971
4957 4974
4957 4992
4958 4964
4958 4965
4958 4975
4958 4979
4958 4986
4959 4962
4959 4963
4959 4965
4959 4983
4959 4987
4959 4988
4959 4993
4959 4999
4960 4961
4960 4987
4960 4988
4960 4993
4960 4994
4961 4968
4961 4976
4961 4980
4961 4987
4961 4998
4962 4982
4962 4987
4962 4996
4963 4981
4963 4986
4963 4998
4964 4965
4964 4975
4964 4980
4964 4991
4964 4997
4965 4967
4965 4970
4965 4975
4966 4970
4966 4981
4966 4991
4966 4992
4967 4970
4967 4972
4967 4979
4967 4996
4969 4982
4969 4988
4969 4996
4969 4997
4970 4981
4970 4996
4971 4972
4971 4981
4971 4990
4971 4994
4971 4999
4972 4993
4973 4974
4973 4984
4973 4994
4973 4998
4974 4983
4975 4978
4975 4982
4977 4991
4978 4979
4978 4986
4978 4992
4979 4980
4979 4981
4979 4982
4979 4992
4979 4994
4979 4999
4980 4981
4983 4984
4983 4987
4983 4988
4984 4987
4986 4993
4986 4995
4986 4998
4987 4990
4989 4992
4993 4997