0 18
0 23
0 24
0 29
0 30
0 44
0 47
0 61
0 66
0 84
0 86
0 94
0 106
0 108
0 145
0 157
0 170
0 174
0 182
0 184
0 194
0 198
1 20
1 50
1 63
1 82
1 91
1 94
1 108
1 109
1 116
1 117
1 120
1 136
1 138
1 139
1 140
1 155
1 167
1 175
1 185
1 191
1 196
1 198
1 199
2 18
2 27
2 29
2 39
2 65
2 69
2 72
2 121
2 125
2 144
2 165
2 169
2 180
2 186
2 190
3 6
3 9
3 16
3 17
3 47
3 60
3 62
3 63
3 64
3 71
3 98
3 126
3 142
3 158
3 174
3 176
3 177
3 186
4 50
4 55
4 62
4 70
4 75
4 104
4 114
4 115
4 124
4 131
4 138
4 152
4 162
4 168
4 181
4 193
4 198
5 15
5 19
5 27
5 55
5 72
5 85
5 98
5 106
5 108
5 134
5 138
5 151
5 153
5 161
5 165
5 185
6 10
6 22
6 29
6 30
6 59
6 71
6 96
6 100
6 102
6 103
6 112
6 125
6 128
6 132
6 143
6 146
6 149
6 162
6 175
6 178
6 183
6 197
7 9
7 31
7 33
7 42
7 45
7 55
7 82
7 90
7 92
7 105
7 110
7 111
7 112
7 114
7 119
7 132
7 142
7 143
7 164
7 166
7 173
7 174
7 189
7 192
8 11
8 32
8 45
8 51
8 59
8 68
8 84
8 86
8 87
8 91
8 99
8 110
8 121
8 157
8 158
8 163
8 165
8 166
8 168
8 174
8 175
8 180
8 184
9 15
9 19
9 30
9 42
9 58
9 65
9 69
9 74
9 91
9 96
9 98
9 100
9 127
9 147
9 150
9 155
9 168
9 171
9 183
9 192
10 14
10 26
10 39
10 56
10 62
10 75
10 111
10 114
10 124
10 145
10 152
10 155
10 164
10 172
10 181
10 182
10 183
10 197
11 15
11 26
11 42
11 47
11 57
11 78
11 79
11 82
11 94
11 97
11 98
11 112
11 113
11 115
11 118
11 127
11 130
11 137
11 148
11 169
11 172
12 18
12 22
12 24
12 41
12 43
12 72
12 88
12 89
12 96
12 116
12 122
12 127
12 129
12 147
12 153
12 160
12 162
12 170
12 178
12 179
12 181
12 185
12 187
12 191
12 196
12 197
13 18
13 21
13 27
13 28
13 31
13 45
13 47
13 59
13 67
13 73
13 80
13 86
13 95
13 104
13 152
13 159
13 163
13 169
13 172
13 187
13 189
13 190
14 24
14 40
14 44
14 54
14 60
14 86
14 97
14 101
14 104
14 112
14 113
14 119
14 127
14 135
14 138
14 154
14 156
14 177
14 186
14 187
14 189
14 191
14 192
14 473
15 21
15 40
15 44
15 50
15 54
15 56
15 61
15 63
15 65
15 80
15 89
15 103
15 122
15 124
15 136
15 148
15 159
15 179
16 46
16 52
16 53
16 61
16 83
16 86
16 93
16 98
16 100
16 113
16 139
16 141
16 153
16 158
16 164
16 179
16 198
17 18
17 20
17 26
17 37
17 39
17 49
17 56
17 74
17 125
17 136
17 140
17 150
17 153
17 160
17 168
17 177
17 178
17 179
17 188
18 26
18 57
18 70
18 85
18 88
18 92
18 93
18 99
18 114
18 116
18 129
18 147
18 156
18 184
19 20
19 24
19 42
19 48
19 51
19 53
19 54
19 59
19 61
19 69
19 71
19 72
19 77
19 97
19 104
19 106
19 112
19 114
19 117
19 121
19 126
19 143
19 150
19 153
19 161
19 167
19 179
19 180
19 195
20 33
20 50
20 52
20 57
20 65
20 67
20 79
20 108
20 110
20 132
20 135
20 149
20 151
20 170
20 171
20 193
21 45
21 57
21 64
21 68
21 69
21 94
21 106
21 127
21 146
21 151
21 153
21 160
21 171
21 185
21 190
22 37
22 39
22 49
22 59
22 66
22 70
22 73
22 76
22 106
22 119
22 124
22 125
22 130
22 131
22 134
22 155
22 156
22 160
22 170
22 175
22 183
22 198
23 25
23 26
23 32
23 45
23 47
23 48
23 61
23 63
23 64
23 69
23 70
23 72
23 73
23 90
23 121
23 124
23 138
23 140
23 144
23 147
23 156
23 164
23 174
23 194
23 198
24 28
24 31
24 34
24 37
24 41
24 55
24 59
24 79
24 82
24 93
24 119
24 125
24 138
24 139
24 153
24 155
24 174
24 197
25 30
25 42
25 45
25 46
25 52
25 62
25 68
25 81
25 105
25 111
25 114
25 131
25 132
25 133
25 137
25 144
25 150
25 170
25 176
25 182
25 190
25 193
25 197
26 29
26 40
26 45
26 60
26 72
26 81
26 82
26 92
26 94
26 101
26 105
26 121
26 123
26 130
26 139
26 148
26 152
26 155
26 160
26 165
26 166
26 170
26 187
26 189
27 28
27 46
27 60
27 62
27 85
27 91
27 96
27 102
27 104
27 111
27 114
27 126
27 151
27 162
27 163
27 172
27 176
27 179
27 183
27 195
28 69
28 73
28 76
28 78
28 98
28 110
28 128
28 134
28 157
28 158
28 164
28 176
29 31
29 45
29 65
29 71
29 79
29 80
29 88
29 93
29 104
29 105
29 123
29 139
29 155
29 159
29 172
29 174
29 181
29 195
30 57
30 63
30 67
30 72
30 82
30 105
30 110
30 120
30 132
30 145
30 164
30 188
30 192
30 198
31 39
31 61
31 82
31 94
31 129
31 133
31 137
31 139
31 140
31 142
31 143
31 147
31 151
31 162
31 170
31 187
32 36
32 54
32 60
32 64
32 82
32 95
32 106
32 110
32 118
32 126
32 198
33 34
33 36
33 46
33 53
33 106
33 114
33 118
33 126
33 129
33 150
33 160
33 164
33 182
34 36
34 46
34 54
34 75
34 92
34 94
34 98
34 114
34 115
34 117
34 195
35 55
35 57
35 62
35 74
35 89
35 90
35 91
35 134
35 146
35 156
35 173
35 181
35 184
35 191
36 66
36 70
36 74
36 76
36 81
36 92
36 96
36 105
36 110
36 111
36 114
36 146
36 153
36 156
36 189
37 42
37 56
37 81
37 82
37 106
37 133
37 134
37 135
37 139
37 140
37 188
37 197
38 43
38 46
38 65
38 91
38 99
38 105
38 112
38 134
38 151
38 176
38 180
38 183
39 41
39 55
39 59
39 61
39 62
39 68
39 74
39 80
39 88
39 95
39 116
39 120
39 122
39 135
39 157
39 161
39 182
39 189
39 193
39 197
40 43
40 65
40 71
40 79
40 108
40 109
40 111
40 115
40 117
40 128
40 135
40 142
40 156
40 174
40 191
40 193
40 196
40 198
41 50
41 71
41 82
41 83
41 93
41 113
41 122
41 134
41 142
41 145
41 172
41 186
41 192
41 199
42 47
42 85
42 94
42 108
42 113
42 118
42 129
42 133
42 152
42 153
42 155
42 166
42 172
42 178
42 193
42 198
43 46
43 57
43 61
43 70
43 74
43 79
43 118
43 128
43 129
43 146
43 158
43 165
43 176
43 199
44 50
44 53
44 68
44 71
44 74
44 89
44 90
44 99
44 101
44 118
44 126
44 129
44 134
44 135
44 136
44 139
44 152
44 158
44 189
44 194
45 64
45 72
45 93
45 97
45 108
45 120
45 129
45 182
45 184
45 187
45 189
45 195
46 59
46 74
46 83
46 86
46 92
46 99
46 103
46 106
46 138
46 152
46 153
46 154
46 155
46 157
46 175
46 179
46 185
46 192
47 67
47 84
47 91
47 96
47 109
47 115
47 121
47 123
47 126
47 128
47 151
47 156
47 173
47 191
48 81
48 82
48 88
48 91
48 98
48 120
48 132
48 135
48 148
48 159
48 161
48 165
48 174
48 192
49 95
49 113
49 132
49 145
49 158
49 174
49 196
50 55
50 62
50 73
50 75
50 91
50 105
50 109
50 123
50 127
50 128
50 135
50 145
50 148
50 160
50 161
50 175
50 177
50 182
50 184
51 80
51 98
51 102
51 119
51 141
51 149
51 158
51 165
51 175
51 177
51 189
51 195
52 72
52 74
52 83
52 88
52 94
52 105
52 113
52 114
52 116
52 118
52 140
52 158
52 176
52 279
53 66
53 79
53 86
53 88
53 92
53 97
53 103
53 111
53 112
53 123
53 126
53 142
53 143
53 159
53 164
53 185
53 194
53 196
53 197
54 66
54 80
54 81
54 85
54 106
54 116
54 121
54 125
54 135
54 193
54 199
55 69
55 79
55 80
55 83
55 88
55 101
55 103
55 105
55 107
55 117
55 158
55 179
55 194
56 103
56 121
56 129
56 131
56 133
56 143
56 157
56 165
56 167
56 171
56 172
56 175
56 186
57 63
57 79
57 84
57 87
57 96
57 97
57 104
57 123
57 128
57 129
57 145
57 153
57 161
57 163
57 165
57 170
57 179
57 180
57 182
58 59
58 71
58 77
58 78
58 91
58 92
58 93
58 108
58 109
58 116
58 123
58 133
58 155
58 162
58 170
58 173
59 71
59 86
59 92
59 96
59 118
59 127
59 139
59 143
59 150
59 151
59 163
59 172
59 173
59 176
59 188
59 190
59 195
59 196
59 198
59 199
60 73
60 78
60 95
60 101
60 111
60 133
60 163
60 176
60 177
60 197
61 66
61 73
61 74
61 77
61 80
61 82
61 90
61 94
61 95
61 109
61 122
61 127
61 129
61 150
61 161
61 167
61 176
62 72
62 74
62 79
62 92
62 102
62 112
62 126
62 138
62 140
62 144
62 146
62 167
62 174
62 186
63 70
63 72
63 86
63 91
63 92
63 106
63 108
63 121
63 138
63 149
63 159
63 181
63 199
64 83
64 107
64 121
64 129
64 145
64 171
64 195
64 197
65 93
65 94
65 105
65 113
65 149
65 152
65 166
65 183
65 889
66 67
66 81
66 82
66 83
66 86
66 108
66 118
66 153
66 169
66 191
67 76
67 96
67 97
67 106
67 109
67 131
67 142
67 149
67 155
67 187
67 190
67 193
67 198
67 898
68 74
68 76
68 81
68 90
68 108
68 113
68 120
68 126
68 136
68 137
68 138
68 141
68 149
68 155
68 161
68 163
68 180
68 186
68 187
68 190
69 96
69 103
69 110
69 120
69 122
69 125
69 129
69 138
69 141
69 151
69 177
69 178
70 71
70 117
70 136
70 141
70 152
70 155
70 159
70 162
70 169
70 174
70 186
71 73
71 84
71 87
71 90
71 104
71 112
71 121
71 147
71 161
71 169
71 182
72 76
72 97
72 113
72 124
72 130
72 151
72 157
72 161
72 168
72 179
72 182
73 84
73 94
73 111
73 118
73 125
73 128
73 169
73 170
73 180
73 197
73 198
74 82
74 87
74 91
74 109
74 120
74 129
74 136
74 145
74 148
74 161
74 175
74 179
74 182
74 183
74 185
74 192
75 77
75 88
75 105
75 112
75 116
75 140
75 160
75 165
75 181
75 183
76 83
76 96
76 104
76 108
76 136
76 143
76 148
76 153
76 156
76 175
76 185
76 188
76 193
76 196
76 199
77 85
77 86
77 87
77 94
77 102
77 105
77 115
77 123
77 128
77 137
77 140
77 149
77 156
77 161
77 171
77 173
77 174
78 94
78 110
78 116
78 127
78 153
78 154
78 162
78 170
79 83
79 88
79 103
79 116
79 155
79 174
79 181
79 196
80 103
80 109
80 114
80 122
80 130
80 131
80 156
80 161
80 166
80 169
80 190
81 82
81 85
81 88
81 101
81 122
81 128
81 139
81 148
81 171
81 173
81 174
81 175
81 178
81 182
81 192
81 194
82 83
82 100
82 105
82 109
82 133
82 143
82 154
82 163
82 164
82 183
82 188
82 199
83 112
83 115
83 116
83 126
83 134
83 139
83 154
83 157
83 159
83 166
83 172
83 178
83 179
83 189
83 197
84 92
84 100
84 103
84 120
84 124
84 130
84 162
84 163
84 170
84 183
85 98
85 111
85 124
85 134
85 167
85 187
85 196
85 198
85 199
86 90
86 101
86 107
86 119
86 122
86 127
86 140
86 161
86 164
86 170
86 195
86 198
87 95
87 100
87 105
87 106
87 108
87 113
87 114
87 119
87 134
87 158
87 162
87 178
87 191
88 106
88 113
88 114
88 160
88 172
88 179
88 180
88 181
89 93
89 94
89 111
89 117
89 119
89 120
89 134
89 139
89 145
89 168
90 91
90 104
90 110
90 111
90 140
90 143
90 145
90 148
90 154
90 157
90 175
90 184
90 185
90 196
91 103
91 135
91 137
91 139
91 146
91 148
91 150
91 177
91 180
91 185
91 193
92 93
92 96
92 97
92 103
92 111
92 116
92 119
92 123
92 138
92 183
92 190
92 191
92 635
93 96
93 104
93 113
93 129
93 140
93 143
93 152
93 196
93 199
94 101
94 115
94 128
94 134
94 139
94 160
94 161
94 169
94 177
94 180
94 190
94 192
94 194
95 102
95 113
95 114
95 115
95 120
95 125
95 131
95 148
95 150
95 158
95 164
95 189
95 193
96 122
96 125
96 133
96 134
96 156
96 159
96 184
96 198
97 98
97 104
97 114
97 140
97 154
97 171
97 176
97 178
97 179
97 184
97 187
97 193
97 199
98 113
98 124
98 132
98 133
98 146
98 147
98 161
99 146
99 147
99 162
99 172
99 196
100 101
100 117
100 121
100 135
100 158
100 159
100 180
100 191
101 118
101 121
101 138
101 150
101 153
101 154
101 157
101 159
101 173
101 195
101 197
102 103
102 115
102 129
102 141
102 142
102 148
102 157
102 186
102 199
103 110
103 121
103 138
103 145
103 158
103 160
104 113
104 114
104 122
104 125
104 127
104 128
104 157
104 165
104 189
104 190
104 192
104 196
105 107
105 134
105 140
105 157
105 166
105 183
105 196
106 107
106 122
106 126
106 128
106 138
106 154
106 167
106 169
106 171
106 188
106 193
107 110
107 149
107 180
107 181
107 195
107 199
107 718
108 119
108 131
108 133
108 139
108 145
108 160
108 169
108 174
108 179
109 112
109 127
109 131
109 134
109 145
109 171
109 172
109 176
109 195
109 196
109 197
110 111
110 116
110 124
110 137
110 151
110 166
110 180
110 185
111 128
111 139
111 140
111 144
111 152
111 176
111 182
111 192
112 116
112 128
112 133
112 135
112 151
112 157
112 178
112 179
112 192
112 193
113 130
113 135
113 138
113 159
113 165
113 168
113 188
113 194
113 199
114 120
114 135
114 141
114 145
114 180
114 187
114 189
114 191
114 197
115 132
115 135
115 149
115 160
115 163
115 173
115 182
115 185
115 186
115 190
115 192
116 117
116 120
116 124
116 125
116 142
116 158
116 162
116 182
116 183
116 194
117 127
117 133
117 146
117 169
117 185
117 188
117 189
117 191
117 193
118 120
118 141
118 153
118 154
118 163
118 168
119 122
119 126
119 136
119 152
119 153
119 163
119 178
119 192
119 205
120 148
120 156
120 164
120 189
121 137
121 157
121 161
121 166
121 187
121 188
122 134
122 141
122 148
122 154
122 166
122 171
122 172
122 179
123 124
123 129
123 131
123 137
123 148
123 156
123 176
124 130
124 132
124 138
124 145
124 179
124 182
124 185
125 149
125 158
125 159
125 177
126 143
126 176
126 178
126 182
126 196
126 198
127 141
127 142
127 147
127 155
127 164
127 165
127 181
128 129
128 135
128 143
128 151
128 152
128 154
128 156
128 162
128 169
128 172
128 184
128 187
128 192
128 193
129 130
129 152
129 163
129 172
129 176
129 180
129 193
129 195
129 198
130 136
130 142
130 152
130 156
130 177
131 148
131 169
132 137
132 141
132 150
132 169
132 177
132 178
132 191
132 197
133 136
133 142
134 137
134 144
134 154
134 159
134 166
134 168
134 172
134 178
134 195
134 198
135 137
135 143
135 148
135 153
135 173
135 185
135 196
136 138
136 146
136 147
136 161
136 194
136 197
137 144
137 155
137 158
137 160
137 193
138 141
138 167
138 181
138 191
138 194
139 145
139 146
139 155
139 183
139 186
139 190
139 197
140 155
140 171
140 184
140 187
140 189
141 142
141 157
141 166
141 183
141 197
142 151
142 169
142 174
142 183
142 193
143 153
143 168
143 171
143 199
144 146
144 155
144 157
144 174
144 178
144 182
144 190
144 192
144 199
145 149
145 192
145 199
146 148
146 152
146 156
146 164
146 169
146 172
146 189
147 157
147 171
147 181
147 183
147 196
148 166
148 167
148 178
149 175
149 187
149 188
149 197
150 190
151 192
152 154
152 164
152 169
152 171
152 192
152 194
152 199
152 831
153 156
153 170
153 190
153 198
154 160
154 172
154 192
155 174
156 171
156 176
156 181
156 186
157 187
157 196
158 165
158 170
158 174
158 179
159 163
159 184
159 186
159 191
159 194
160 170
160 172
160 177
160 185
160 192
160 196
161 172
161 173
162 165
162 166
162 187
162 195
162 196
162 261
163 172
163 178
163 179
163 189
163 194
163 946
164 169
164 184
165 174
165 187
166 167
166 179
166 183
166 194
166 196
167 170
167 187
167 189
167 194
167 199
168 176
168 189
168 190
169 170
169 191
169 197
170 173
170 178
170 191
171 194
172 176
172 189
173 182
173 195
173 199
174 193
176 178
176 181
176 184
176 187
176 192
176 194
177 190
177 195
178 189
178 190
178 194
180 186
181 199
182 188
182 771
183 192
183 194
183 195
187 193
187 197
190 198
191 197
194 196
194 197
194 199
196 198
200 209
200 216
200 219
200 231
200 253
200 254
200 276
200 283
200 309
200 315
200 317
200 322
200 328
200 337
200 348
200 371
200 388
200 390
200 394
200 397
200 398
201 225
201 230
201 243
201 256
201 265
201 269
201 275
201 307
201 308
201 311
201 324
201 378
201 381
201 393
202 205
202 213
202 236
202 238
202 245
202 248
202 259
202 263
202 276
202 279
202 291
202 315
202 328
202 335
202 339
202 341
202 351
202 354
202 360
202 368
202 378
202 381
202 382
202 388
202 393
202 394
203 211
203 217
203 222
203 231
203 239
203 240
203 256
203 276
203 285
203 305
203 320
203 323
203 346
203 352
203 358
203 364
204 207
204 266
204 291
204 318
204 322
204 323
204 343
204 347
204 353
204 363
204 372
204 388
205 211
205 221
205 229
205 235
205 240
205 253
205 257
205 283
205 288
205 295
205 297
205 315
205 335
205 346
205 350
205 377
205 380
205 392
206 215
206 223
206 238
206 245
206 247
206 259
206 261
206 268
206 291
206 299
206 300
206 306
206 307
206 326
206 331
206 333
206 339
206 371
206 376
206 392
206 393
206 395
206 396
207 231
207 248
207 254
207 293
207 300
207 330
207 340
207 347
207 351
207 352
207 356
207 369
207 376
207 381
207 386
208 214
208 217
208 220
208 227
208 249
208 250
208 253
208 254
208 272
208 273
208 279
208 294
208 298
208 300
208 304
208 308
208 314
208 322
208 329
208 332
208 339
208 346
208 351
208 376
208 388
208 398
208 399
209 214
209 221
209 224
209 225
209 278
209 281
209 283
209 289
209 290
209 296
209 305
209 307
209 312
209 313
209 317
209 323
209 336
209 345
209 355
209 357
209 358
209 374
209 378
209 383
209 420
210 212
210 247
210 271
210 287
210 303
210 305
210 309
210 317
210 321
210 333
210 334
210 350
210 352
210 357
210 360
210 369
210 371
210 374
210 376
210 377
210 384
210 387
210 392
210 396
210 398
211 215
211 222
211 225
211 230
211 237
211 238
211 244
211 254
211 280
211 297
211 302
211 304
211 311
211 316
211 319
211 321
211 324
211 328
211 338
211 339
211 347
211 356
211 376
211 391
212 232
212 237
212 238
212 244
212 249
212 253
212 259
212 277
212 279
212 282
212 300
212 306
212 307
212 324
212 328
212 334
212 336
212 345
212 381
212 389
213 214
213 225
213 253
213 271
213 283
213 303
213 319
213 320
213 324
213 342
213 357
213 358
213 362
213 377
213 383
213 395
214 221
214 226
214 234
214 247
214 248
214 253
214 257
214 262
214 265
214 271
214 288
214 289
214 312
214 331
214 336
214 342
214 344
214 355
214 359
214 374
214 376
214 386
214 389
214 395
214 399
215 237
215 241
215 244
215 296
215 298
215 300
215 305
215 353
215 365
215 371
215 373
215 391
215 393
215 397
216 229
216 234
216 239
216 240
216 256
216 279
216 282
216 289
216 300
216 306
216 310
216 324
216 330
216 334
216 335
216 348
216 354
216 359
216 360
216 366
216 371
216 378
216 394
217 227
217 242
217 256
217 279
217 282
217 287
217 291
217 317
217 340
217 363
217 375
218 236
218 248
218 251
218 252
218 255
218 256
218 260
218 263
218 279
218 280
218 288
218 293
218 298
218 335
218 338
218 346
218 347
218 358
218 387
218 397
218 398
219 239
219 242
219 251
219 252
219 256
219 282
219 291
219 300
219 305
219 309
219 310
219 322
219 324
219 377
219 380
219 393
220 228
220 235
220 238
220 241
220 249
220 250
220 272
220 292
220 295
220 316
220 321
220 334
220 335
220 338
220 347
220 352
220 362
220 365
221 227
221 245
221 270
221 272
221 274
221 281
221 282
221 285
221 287
221 293
221 305
221 306
221 314
221 324
221 331
221 342
221 343
221 345
221 393
221 396
222 245
222 287
222 301
222 310
222 319
222 327
222 337
222 339
222 345
222 346
222 353
222 376
222 377
222 385
222 392
223 224
223 227
223 244
223 247
223 250
223 283
223 286
223 291
223 307
223 314
223 319
223 323
223 339
223 341
223 368
223 392
223 397
223 398
224 228
224 235
224 250
224 252
224 265
224 273
224 286
224 287
224 305
224 306
224 307
224 330
224 332
224 355
224 358
224 376
224 396
224 399
225 241
225 248
225 256
225 266
225 267
225 292
225 295
225 311
225 323
225 325
225 338
225 346
225 348
225 355
225 364
225 385
226 241
226 247
226 274
226 280
226 286
226 324
226 326
226 331
226 347
226 354
226 357
226 364
226 370
226 385
226 397
227 230
227 232
227 243
227 246
227 250
227 255
227 259
227 300
227 304
227 317
227 321
227 323
227 329
227 330
227 337
227 352
227 357
227 378
228 286
228 292
228 297
228 302
228 328
228 333
228 346
228 348
228 351
228 359
228 363
229 230
229 256
229 271
229 281
229 290
229 293
229 297
229 312
229 314
229 320
229 326
229 343
229 351
229 361
229 363
229 365
229 367
229 370
229 390
229 935
230 237
230 257
230 258
230 271
230 274
230 313
230 319
230 327
230 328
230 335
230 345
230 350
230 352
230 353
230 356
230 375
231 243
231 248
231 252
231 261
231 262
231 263
231 282
231 302
231 328
231 344
231 351
231 397
232 251
232 258
232 261
232 273
232 281
232 326
232 338
232 346
232 352
232 364
232 367
232 380
232 387
232 392
232 395
232 397
233 236
233 241
233 244
233 251
233 260
233 268
233 282
233 285
233 288
233 292
233 293
233 335
233 347
233 350
233 357
234 268
234 281
234 283
234 285
234 299
234 307
234 319
234 320
234 339
234 357
234 358
234 361
234 369
234 372
234 379
235 242
235 245
235 273
235 276
235 281
235 300
235 326
235 336
235 339
235 356
235 377
235 378
235 385
236 240
236 253
236 258
236 265
236 269
236 275
236 278
236 282
236 289
236 296
236 297
236 298
236 327
236 334
236 345
236 347
236 354
236 371
236 398
236 747
237 251
237 303
237 307
237 326
237 332
237 344
237 345
237 348
237 357
237 360
237 363
237 378
237 385
238 249
238 252
238 256
238 257
238 273
238 297
238 298
238 309
238 315
238 340
238 343
238 344
238 350
238 354
238 355
238 369
238 376
238 385
238 386
238 390
238 394
238 396
238 399
239 266
239 285
239 294
239 316
239 319
239 323
239 332
239 340
239 354
239 356
239 357
239 380
239 393
239 398
240 242
240 255
240 272
240 281
240 300
240 303
240 322
240 368
240 377
240 394
241 244
241 245
241 259
241 268
241 271
241 279
241 343
241 352
241 359
241 363
241 365
241 374
241 384
241 386
241 398
242 254
242 294
242 296
242 305
242 324
242 326
242 343
242 346
242 353
242 358
242 363
242 384
243 250
243 293
243 302
243 321
243 325
243 330
243 364
243 367
243 381
243 386
243 387
243 390
244 245
244 251
244 258
244 265
244 293
244 297
244 299
244 305
244 314
244 323
244 332
244 357
244 363
244 381
245 254
245 273
245 293
245 303
245 315
245 320
245 353
246 258
246 261
246 290
246 301
246 345
246 346
246 352
246 367
246 379
246 381
246 383
246 384
246 390
246 391
247 250
247 256
247 284
247 286
247 320
247 326
247 328
247 339
247 341
247 375
247 386
247 388
247 390
247 394
248 251
248 252
248 262
248 265
248 270
248 282
248 287
248 289
248 291
248 323
248 330
248 349
248 359
248 372
248 380
248 386
248 387
249 254
249 255
249 262
249 288
249 290
249 296
249 321
249 332
249 333
249 373
249 382
249 395
250 256
250 261
250 267
250 268
250 270
250 273
250 306
250 321
250 325
250 343
250 345
250 351
250 366
250 377
250 382
250 392
250 396
250 397
250 398
251 252
251 259
251 265
251 268
251 301
251 307
251 308
251 314
251 321
251 326
251 338
251 342
251 361
251 362
251 376
251 389
251 397
252 266
252 270
252 278
252 280
252 300
252 301
252 304
252 326
252 361
252 364
252 374
252 382
253 274
253 288
253 292
253 296
253 297
253 304
253 306
253 307
253 313
253 316
253 322
253 326
253 366
253 371
253 372
253 380
253 381
254 280
254 283
254 297
254 316
254 339
254 347
254 348
254 362
254 365
254 371
254 384
254 385
254 387
254 392
254 397
255 263
255 285
255 286
255 290
255 296
255 303
255 320
255 340
255 352
255 356
255 362
255 377
255 379
255 386
255 397
255 398
255 399
256 257
256 258
256 261
256 278
256 279
256 281
256 292
256 301
256 307
256 310
256 312
256 314
256 315
256 331
256 338
256 356
256 368
256 383
256 393
257 266
257 292
257 294
257 298
257 299
257 300
257 305
257 313
257 319
257 327
257 355
257 357
257 368
257 376
257 380
257 384
257 391
258 262
258 267
258 271
258 311
258 320
258 325
258 326
258 349
258 352
258 354
258 358
258 360
258 367
258 374
258 375
259 268
259 270
259 280
259 285
259 298
259 303
259 319
259 339
259 343
259 346
259 351
259 353
259 361
259 364
259 365
259 373
259 379
259 386
259 390
259 394
259 398
260 268
260 273
260 277
260 282
260 295
260 297
260 301
260 305
260 308
260 336
260 339
260 358
260 366
260 370
260 396
260 399
261 264
261 277
261 279
261 294
261 303
261 305
261 310
261 314
261 321
261 336
261 360
261 394
262 269
262 281
262 282
262 312
262 335
262 336
262 338
262 347
262 365
262 367
262 369
262 372
262 379
262 381
262 386
262 395
263 282
263 285
263 299
263 314
263 335
263 340
263 349
263 358
263 368
263 370
263 372
263 388
263 398
264 276
264 279
264 292
264 314
264 343
264 348
264 356
264 364
264 368
264 384
264 387
264 395
265 269
265 278
265 331
265 334
265 342
265 349
265 369
265 372
265 375
265 377
265 378
265 382
265 383
265 395
266 272
266 286
266 302
266 306
266 317
266 320
266 325
266 341
266 356
266 357
266 368
266 373
266 383
266 397
266 399
267 268
267 272
267 320
267 323
267 327
267 329
267 334
267 343
267 349
267 356
267 374
267 387
267 399
268 282
268 294
268 296
268 301
268 318
268 323
268 348
268 361
268 364
268 590
269 270
269 273
269 302
269 317
269 334
269 338
269 366
269 375
269 378
270 275
270 284
270 345
270 349
270 353
271 283
271 294
271 306
271 312
271 325
271 327
271 345
271 349
271 365
271 369
271 376
271 377
271 379
272 276
272 284
272 290
272 291
272 324
272 330
272 340
272 342
272 369
272 370
272 374
272 376
272 382
272 384
273 287
273 307
273 318
273 320
273 331
273 347
273 360
273 372
273 390
273 397
274 276
274 279
274 284
274 286
274 289
274 297
274 301
274 318
274 323
274 334
274 348
274 367
274 384
274 394
274 395
275 284
275 299
275 309
275 311
275 312
275 335
275 349
275 353
275 355
275 369
275 374
275 375
275 386
276 279
276 296
276 309
276 315
276 319
276 320
276 328
276 344
276 355
276 389
276 397
277 287
277 291
277 295
277 318
277 319
277 327
277 336
277 353
277 365
277 367
277 378
277 382
277 394
278 281
278 292
278 304
278 312
278 328
278 344
278 346
278 360
278 370
278 382
278 385
278 392
279 284
279 287
279 296
279 307
279 331
279 338
279 345
279 368
279 376
279 379
279 387
279 388
280 324
280 326
280 334
280 338
280 339
280 362
280 364
280 374
280 375
280 377
280 386
280 398
281 282
281 294
281 306
281 309
281 320
281 321
281 334
281 341
281 348
281 362
281 366
281 373
282 299
282 330
282 331
282 346
282 363
282 373
282 378
282 381
283 287
283 288
283 291
283 308
283 312
283 318
283 331
283 338
283 344
283 362
283 371
283 376
283 382
283 384
283 398
284 290
284 294
284 297
284 302
284 305
284 311
284 354
284 355
284 358
284 361
284 362
284 397
285 286
285 296
285 321
285 356
285 360
285 370
285 372
285 397
285 398
286 296
286 301
286 311
286 315
286 316
286 337
286 349
286 367
286 374
286 375
287 289
287 293
287 318
287 325
287 329
287 336
287 337
287 339
287 345
287 351
287 352
287 363
287 381
287 382
287 387
287 389
288 322
288 331
288 346
288 356
288 362
288 366
288 367
288 372
288 378
289 295
289 299
289 346
289 353
289 355
289 357
289 364
289 381
289 387
290 294
290 309
290 338
290 340
290 347
290 357
290 361
290 369
290 375
290 377
290 387
290 392
291 293
291 305
291 309
291 314
291 316
291 332
291 343
291 356
291 361
291 366
291 384
291 392
292 296
292 302
292 330
292 352
292 353
292 358
292 376
292 380
292 397
293 295
293 311
293 321
293 327
293 335
293 342
293 347
293 358
293 362
293 364
293 366
293 374
293 375
293 377
293 392
294 308
294 312
294 327
294 357
294 358
294 370
294 375
294 376
294 377
295 298
295 302
295 310
295 328
295 348
295 353
295 358
295 360
295 371
295 373
295 397
296 304
296 310
296 312
296 314
296 315
296 317
296 321
296 337
296 340
296 346
296 368
296 372
296 374
296 379
296 384
297 317
297 323
297 330
297 333
297 338
297 340
297 366
297 370
297 376
298 304
298 328
298 342
298 361
298 362
298 370
298 373
298 393
299 307
299 312
299 320
299 323
299 324
299 329
299 354
299 380
299 383
299 385
299 388
299 396
300 310
300 325
300 351
300 361
300 365
300 375
300 394
301 327
301 338
301 356
301 379
301 383
301 389
302 313
302 318
302 335
302 336
302 343
302 347
302 363
302 379
302 382
302 383
302 387
302 397
303 318
303 322
303 324
303 327
303 332
303 337
303 342
303 363
303 371
303 373
303 382
303 390
304 311
304 313
304 339
304 349
304 351
304 360
304 385
304 392
304 397
305 306
305 323
305 329
305 335
305 348
305 358
305 364
305 383
305 392
305 394
306 312
306 346
306 355
306 359
306 383
306 386
306 393
307 319
307 331
307 334
307 335
307 339
307 342
307 349
307 354
307 363
307 386
308 318
308 319
308 342
308 343
308 347
308 349
308 357
308 370
308 389
308 392
308 396
309 316
309 321
309 323
309 344
309 353
309 362
309 369
309 377
309 382
309 385
309 391
309 399
310 319
310 324
310 340
310 344
310 354
310 372
310 389
310 394
311 312
311 323
311 335
311 346
311 353
311 365
311 377
312 328
312 332
312 350
312 363
312 375
312 382
312 388
312 396
313 347
313 368
313 385
314 323
314 336
314 339
314 349
315 342
315 347
315 354
315 370
315 386
315 393
316 337
316 338
316 365
316 383
316 397
317 323
317 336
317 337
317 338
317 347
317 362
317 370
317 379
317 393
317 394
318 322
318 345
318 382
318 384
319 327
319 335
319 361
319 377
319 387
319 393
320 322
320 328
320 359
320 361
320 378
320 392
320 396
320 398
321 323
321 325
321 326
321 341
321 342
321 343
321 349
321 359
321 377
321 381
321 382
321 394
322 327
322 360
322 363
322 366
323 324
323 331
323 333
323 344
323 346
323 348
323 351
323 352
323 355
323 356
323 368
323 386
323 391
323 392
323 399
324 327
324 340
324 348
324 352
324 362
324 363
324 370
324 372
324 378
324 379
324 382
324 390
324 393
325 330
325 350
325 351
325 355
325 359
325 363
325 371
325 383
325 390
325 399
326 328
326 332
326 334
326 347
326 362
326 370
326 372
326 387
326 390
326 393
326 394
327 333
327 347
327 377
327 381
327 399
328 330
328 353
328 359
328 360
328 395
329 339
329 361
329 379
329 385
329 389
329 390
329 393
329 398
330 342
330 343
330 346
330 349
330 355
330 364
330 378
330 387
330 392
330 397
331 350
331 363
331 369
331 376
331 382
332 351
332 353
332 366
332 397
333 337
333 345
333 346
333 347
333 358
333 359
333 364
333 367
333 379
334 336
334 348
334 376
334 384
334 385
334 387
334 396
335 345
335 367
335 375
335 381
336 338
336 359
336 362
336 366
336 369
336 377
336 378
336 382
336 384
337 338
337 343
337 350
337 351
337 353
337 377
337 387
338 352
338 361
338 373
338 374
338 375
338 385
338 396
339 349
339 371
339 391
340 359
340 360
341 364
342 356
342 381
342 386
342 390
343 351
343 353
343 387
343 391
343 399
344 350
344 357
344 361
344 369
344 381
345 350
345 355
345 375
345 378
345 382
346 377
346 380
346 393
347 351
347 353
347 357
347 376
347 384
347 391
348 362
348 380
348 391
349 355
349 372
349 381
349 386
349 390
349 391
349 394
350 362
350 368
350 378
350 393
351 354
351 355
351 364
351 367
351 372
351 380
352 377
352 390
352 391
353 361
353 376
353 379
353 383
353 389
354 359
354 361
354 363
354 366
354 369
354 377
354 384
354 390
354 393
355 358
355 359
355 360
355 364
355 368
355 374
355 379
355 381
355 391
355 399
355 512
356 373
356 386
356 391
357 369
357 381
357 399
358 361
358 375
358 376
359 361
359 365
359 372
359 373
359 380
359 390
360 361
360 372
360 373
360 379
361 367
361 377
361 390
362 378
362 381
362 382
363 374
364 380
365 380
365 392
366 368
366 369
366 378
366 389
366 670
367 368
367 374
367 384
367 398
367 399
368 370
368 371
369 373
369 374
369 390
369 399
370 379
370 387
370 394
371 376
371 384
371 390
372 381
373 379
373 384
373 393
373 399
375 376
375 387
375 393
375 397
376 387
376 399
379 390
380 386
380 387
380 389
380 390
381 389
382 386
382 391
382 392
382 394
382 396
383 387
383 398
385 390
386 394
387 395
388 399
389 393
389 442
390 391
390 395
391 394
391 399
393 394
400 407
400 411
400 412
400 413
400 426
400 428
400 433
400 435
400 445
400 451
400 456
400 465
400 470
400 474
400 490
400 495
400 498
400 504
400 540
400 551
400 554
400 555
400 559
400 568
400 581
400 585
400 587
401 425
401 432
401 443
401 453
401 459
401 462
401 463
401 466
401 476
401 480
401 484
401 488
401 505
401 512
401 514
401 516
401 525
401 530
401 547
401 556
401 564
401 580
401 583
401 593
402 404
402 411
402 417
402 422
402 423
402 431
402 438
402 440
402 451
402 471
402 484
402 508
402 517
402 528
402 529
402 531
402 532
402 545
402 550
402 558
402 593
402 595
403 417
403 439
403 441
403 461
403 464
403 519
403 524
403 540
403 574
403 584
403 596
404 411
404 475
404 477
404 484
404 496
404 502
404 517
404 522
404 531
404 535
404 555
404 575
404 590
404 597
405 407
405 412
405 439
405 444
405 447
405 481
405 486
405 495
405 501
405 506
405 538
405 540
405 557
405 573
405 574
406 408
406 419
406 425
406 432
406 433
406 445
406 475
406 494
406 519
406 524
406 525
406 534
406 542
406 556
406 596
406 598
407 409
407 413
407 428
407 434
407 456
407 467
407 469
407 474
407 489
407 535
407 554
407 577
407 578
407 588
408 424
408 425
408 427
408 437
408 449
408 455
408 457
408 477
408 494
408 496
408 498
408 502
408 532
408 543
408 544
408 546
408 549
408 557
408 558
408 560
408 577
408 582
409 424
409 439
409 453
409 478
409 480
409 513
409 518
409 522
409 523
409 525
409 526
409 545
409 570
409 590
409 597
410 430
410 469
410 483
410 492
410 500
410 508
410 516
410 523
410 538
410 557
410 568
410 571
410 576
410 588
410 592
410 593
411 420
411 443
411 457
411 459
411 480
411 482
411 493
411 503
411 505
411 508
411 514
411 516
411 529
411 536
411 548
411 553
411 563
411 598
412 423
412 430
412 433
412 466
412 486
412 489
412 491
412 508
412 511
412 514
412 534
412 555
412 572
412 574
412 576
412 585
412 587
413 414
413 427
413 435
413 440
413 464
413 476
413 480
413 492
413 509
413 538
413 563
413 576
413 581
413 586
413 591
414 429
414 448
414 470
414 471
414 477
414 483
414 496
414 514
414 537
414 538
414 539
414 564
414 569
414 574
414 583
415 416
415 426
415 428
415 430
415 441
415 446
415 452
415 453
415 469
415 472
415 485
415 498
415 500
415 509
415 526
415 528
415 539
415 544
415 550
415 564
416 432
416 433
416 446
416 452
416 453
416 477
416 480
416 484
416 506
416 528
416 537
416 546
416 560
416 564
416 568
416 572
416 592
416 594
417 437
417 439
417 450
417 451
417 456
417 462
417 463
417 481
417 484
417 510
417 511
417 520
417 529
417 539
417 541
417 553
417 571
417 576
417 593
418 422
418 428
418 432
418 438
418 442
418 484
418 485
418 491
418 510
418 515
418 550
418 570
418 591
419 424
419 433
419 438
419 439
419 441
419 447
419 454
419 460
419 463
419 481
419 486
419 487
419 501
419 542
419 543
419 544
419 563
419 594
420 422
420 436
420 440
420 456
420 460
420 476
420 491
420 502
420 512
420 520
420 528
420 535
420 541
420 554
420 559
421 438
421 441
421 442
421 443
421 479
421 486
421 494
421 496
421 517
421 523
421 525
421 531
421 541
421 545
421 557
421 562
421 567
421 568
421 569
421 575
421 580
421 588
421 595
421 598
422 426
422 431
422 434
422 442
422 450
422 464
422 479
422 489
422 499
422 500
422 515
422 530
422 536
422 593
423 494
423 521
423 529
423 546
423 553
423 556
423 562
423 563
423 569
423 585
423 588
423 597
424 452
424 458
424 487
424 520
424 530
424 536
424 539
424 548
424 562
424 568
424 585
425 434
425 452
425 462
425 472
425 481
425 482
425 498
425 523
425 547
425 558
425 564
425 578
425 594
425 598
426 447
426 458
426 460
426 472
426 479
426 484
426 485
426 492
426 493
426 520
426 521
426 522
426 525
426 528
426 551
426 552
426 556
426 574
426 576
426 579
426 584
427 464
427 467
427 469
427 470
427 476
427 491
427 494
427 496
427 497
427 519
427 551
427 553
427 555
427 556
427 561
427 562
427 563
427 572
427 581
427 597
428 441
428 464
428 475
428 477
428 492
428 505
428 526
428 538
428 546
428 558
428 564
428 565
428 585
428 587
428 599
429 431
429 444
429 453
429 458
429 482
429 488
429 491
429 495
429 502
429 508
429 513
429 529
429 562
429 572
429 577
429 580
430 431
430 432
430 459
430 462
430 465
430 469
430 472
430 487
430 509
430 523
430 526
430 545
430 573
431 439
431 441
431 443
431 447
431 453
431 483
431 485
431 489
431 490
431 503
431 505
431 506
431 507
431 512
431 520
431 525
431 533
431 540
431 541
431 542
431 543
431 544
431 552
431 574
431 578
431 584
431 587
431 588
432 455
432 458
432 465
432 466
432 467
432 481
432 482
432 504
432 508
432 511
432 527
432 532
432 544
432 557
432 562
432 567
432 580
432 581
432 597
433 458
433 500
433 504
433 505
433 525
433 537
433 550
433 564
433 571
433 574
433 584
434 451
434 493
434 496
434 529
434 552
434 562
434 563
434 572
434 577
434 578
434 581
435 439
435 454
435 465
435 478
435 484
435 502
435 509
435 520
435 542
435 548
435 565
435 568
435 576
435 582
435 595
435 597
435 598
436 466
436 471
436 489
436 494
436 502
436 577
436 578
436 587
437 443
437 457
437 464
437 466
437 479
437 503
437 522
437 529
437 531
437 537
437 549
437 558
437 560
437 567
437 570
437 572
437 579
437 593
437 596
438 440
438 471
438 485
438 492
438 497
438 503
438 508
438 536
438 544
438 546
438 566
438 569
438 575
438 576
438 595
439 440
439 460
439 471
439 481
439 490
439 531
439 533
439 539
439 541
439 542
439 566
439 573
439 576
439 577
439 592
439 593
440 465
440 467
440 474
440 483
440 486
440 491
440 496
440 498
440 526
440 531
440 532
440 537
440 541
440 545
440 556
440 564
440 566
440 587
440 588
440 589
440 595
440 598
441 454
441 468
441 479
441 482
441 484
441 505
441 509
441 519
441 544
441 557
441 571
441 582
441 598
442 450
442 471
442 473
442 482
442 485
442 493
442 514
442 552
442 553
442 569
442 590
442 598
443 451
443 478
443 491
443 505
443 506
443 507
443 513
443 524
443 534
443 573
443 575
443 578
443 584
443 590
444 448
444 451
444 461
444 475
444 476
444 488
444 495
444 526
444 539
444 548
444 554
444 563
444 568
444 577
444 588
444 595
445 450
445 458
445 475
445 479
445 487
445 492
445 525
445 531
445 547
445 571
445 578
445 586
445 591
446 447
446 473
446 477
446 478
446 494
446 496
446 499
446 509
446 531
446 534
446 557
446 564
446 574
446 585
446 591
447 453
447 457
447 464
447 478
447 486
447 490
447 492
447 496
447 500
447 508
447 512
447 515
447 521
447 523
447 526
447 539
447 541
447 558
447 563
447 565
447 566
447 568
447 580
447 588
447 589
448 454
448 465
448 490
448 492
448 494
448 496
448 515
448 517
448 521
448 542
448 543
448 555
448 571
448 574
448 575
448 594
449 453
449 462
449 473
449 506
449 518
449 520
449 526
449 528
449 531
449 533
449 535
449 540
449 570
449 589
449 597
449 598
450 455
450 459
450 475
450 479
450 484
450 494
450 497
450 514
450 525
450 545
450 549
450 551
450 557
450 558
450 567
450 583
451 459
451 470
451 478
451 481
451 496
451 502
451 506
451 513
451 524
451 526
451 537
451 546
451 553
451 562
451 569
451 573
451 584
451 599
452 470
452 478
452 480
452 484
452 485
452 492
452 515
452 519
452 528
452 532
452 534
452 543
452 544
452 556
452 558
452 565
452 577
452 581
452 586
453 456
453 461
453 472
453 495
453 503
453 516
453 526
453 528
453 541
453 558
453 577
453 593
453 599
454 457
454 464
454 471
454 481
454 495
454 499
454 511
454 521
454 524
454 528
454 529
454 532
454 537
454 564
454 565
454 582
454 588
454 593
454 677
455 456
455 458
455 464
455 466
455 499
455 550
455 554
455 567
455 575
455 576
455 577
455 579
455 590
456 457
456 465
456 471
456 475
456 481
456 490
456 494
456 509
456 523
456 540
456 578
456 796
457 461
457 473
457 475
457 481
457 482
457 488
457 496
457 504
457 516
457 520
457 534
457 562
457 573
457 581
457 583
457 584
457 587
457 594
457 595
458 475
458 476
458 481
458 484
458 506
458 510
458 522
458 544
458 550
458 552
458 556
458 561
459 469
459 496
459 504
459 530
459 542
459 545
459 574
459 580
459 586
459 588
459 590
459 591
460 474
460 479
460 480
460 483
460 512
460 519
460 522
460 528
460 546
460 554
460 561
460 567
460 570
460 571
460 581
460 582
460 599
461 477
461 483
461 498
461 499
461 500
461 502
461 528
461 543
461 546
461 547
461 592
461 598
462 465
462 478
462 487
462 494
462 504
462 520
462 537
462 545
462 547
462 569
462 581
463 466
463 498
463 505
463 506
463 511
463 519
463 529
463 531
463 547
463 558
463 570
463 578
463 594
463 599
464 469
464 474
464 504
464 517
464 530
464 536
464 540
464 542
464 553
464 560
464 561
464 562
464 567
464 583
464 584
464 592
465 502
465 513
465 521
465 526
465 545
465 547
465 548
465 581
465 586
465 590
465 594
466 471
466 493
466 495
466 541
466 542
466 548
466 550
466 842
467 478
467 490
467 503
467 507
467 518
467 520
467 525
467 539
467 548
467 551
467 569
467 573
467 574
467 599
468 494
468 504
468 508
468 511
468 512
468 527
468 532
468 535
468 557
468 565
468 566
468 582
468 585
468 596
468 599
469 471
469 474
469 526
469 529
469 534
469 536
469 539
469 547
469 563
469 566
469 574
469 576
469 579
469 580
469 585
469 593
469 595
470 502
470 508
470 517
470 524
470 541
470 543
470 548
470 560
470 580
470 581
471 475
471 478
471 480
471 499
471 500
471 504
471 513
471 514
471 521
471 525
471 536
471 559
471 571
471 596
472 482
472 508
472 513
472 517
472 519
472 526
472 554
472 559
472 568
472 579
472 580
472 581
472 591
473 478
473 484
473 493
473 507
473 514
473 534
473 543
473 546
473 555
473 580
473 582
473 598
474 476
474 482
474 490
474 503
474 505
474 508
474 512
474 522
474 523
474 541
474 550
474 561
474 563
474 569
474 570
474 572
474 576
474 578
475 483
475 487
475 519
475 532
475 536
475 541
475 546
475 571
475 596
476 484
476 489
476 525
476 538
476 541
476 547
476 566
476 573
476 580
476 581
476 584
476 587
476 597
477 494
477 515
477 528
477 529
477 538
477 546
477 550
477 557
477 560
477 597
478 481
478 487
478 490
478 504
478 506
478 507
478 511
478 512
478 520
478 525
478 544
478 548
478 552
478 558
478 569
478 576
478 579
478 591
478 596
479 484
479 504
479 518
479 551
479 554
479 567
479 596
480 485
480 496
480 501
480 505
480 519
480 530
480 543
480 563
480 582
480 593
480 595
480 599
481 490
481 496
481 497
481 499
481 513
481 520
481 530
481 558
481 561
481 566
481 577
481 581
481 596
482 483
482 498
482 509
482 521
482 553
482 567
483 484
483 495
483 527
483 542
483 562
483 565
483 582
483 585
483 597
484 488
484 494
484 496
484 519
484 527
484 528
484 548
484 552
484 563
484 564
484 567
484 572
485 488
485 514
485 519
485 526
485 528
485 529
485 532
485 550
485 572
485 575
485 587
485 593
485 597
485 599
486 496
486 509
486 517
486 545
486 562
486 592
487 506
487 534
487 539
487 567
487 571
487 574
487 583
487 595
488 500
488 505
488 512
488 548
488 561
488 572
488 591
488 592
488 596
488 599
489 494
489 510
489 511
489 540
489 555
489 556
489 568
489 574
489 580
489 585
489 592
489 596
490 492
490 499
490 513
490 514
490 521
490 545
490 548
490 559
490 584
490 585
490 588
490 596
490 599
491 509
491 512
491 513
491 517
491 526
491 527
491 547
491 550
491 559
491 574
491 580
491 593
491 599
492 516
492 519
492 522
492 531
492 533
492 543
492 544
492 553
492 564
492 580
492 582
492 586
492 589
492 594
492 596
492 599
493 499
493 514
493 515
493 517
493 520
493 523
493 538
493 550
493 577
493 588
493 599
494 495
494 498
494 500
494 509
494 518
494 531
494 534
494 537
494 579
494 587
494 591
495 498
495 507
495 512
495 515
495 528
495 532
495 549
495 575
495 576
495 577
495 585
495 596
495 599
496 498
496 507
496 508
496 514
496 522
496 542
496 559
496 568
496 573
497 508
497 510
497 520
497 526
497 533
497 541
497 575
497 597
498 501
498 504
498 512
498 515
498 530
498 534
498 548
498 568
498 570
499 505
499 511
499 513
499 515
499 522
499 548
499 549
499 550
499 558
499 561
499 568
499 574
499 578
499 583
499 588
499 595
500 524
500 541
500 547
500 553
500 554
500 566
500 567
500 593
501 507
501 510
501 511
501 512
501 516
501 524
501 538
501 539
501 540
501 582
501 592
501 593
502 518
502 533
502 560
502 566
503 504
503 505
503 512
503 521
503 538
503 545
503 560
504 505
504 511
504 512
504 513
504 528
504 538
504 540
504 554
504 565
504 577
504 583
504 594
505 525
505 539
505 564
505 565
506 541
506 547
506 557
506 569
506 578
506 585
506 590
507 510
507 527
507 529
507 533
507 550
507 573
507 578
507 597
508 530
508 544
508 585
508 593
509 512
509 527
509 528
509 539
509 551
509 565
509 576
509 584
509 594
510 537
510 557
510 563
510 583
510 591
510 592
511 513
511 517
511 525
511 553
511 573
511 574
511 581
512 516
512 522
512 525
512 530
512 573
512 583
512 596
513 519
513 524
513 536
513 552
513 559
513 563
513 577
513 584
513 586
513 592
514 533
514 534
514 543
514 546
514 560
514 581
514 585
515 530
515 537
515 542
515 544
515 552
515 559
515 563
515 579
515 590
515 597
516 552
516 564
516 571
516 578
516 581
516 587
516 588
516 589
516 594
517 532
517 538
517 542
517 550
517 553
517 562
517 565
517 569
517 570
518 530
518 546
518 557
518 560
518 564
518 575
518 592
519 521
519 522
519 538
519 559
519 562
519 570
519 573
519 599
520 521
520 525
520 527
520 540
520 545
520 550
520 557
520 574
520 587
521 526
521 543
521 545
521 553
521 567
521 584
522 530
522 534
522 549
522 556
522 567
522 596
522 597
523 528
523 532
523 541
523 548
523 551
523 562
523 564
523 570
523 586
523 587
523 594
523 595
524 544
524 547
524 584
524 588
525 542
525 570
525 582
525 585
526 539
526 548
526 556
526 570
526 597
527 535
527 550
527 552
527 565
527 568
527 570
527 578
527 580
527 587
528 532
528 533
528 551
528 556
528 557
528 558
528 570
528 574
528 584
528 590
528 599
529 539
529 546
529 552
529 565
529 573
530 533
530 545
530 560
530 564
530 569
531 552
531 562
531 564
531 565
531 573
531 590
532 540
532 594
532 597
532 598
533 547
533 564
533 585
533 594
534 543
534 580
534 582
534 587
534 595
535 543
535 549
535 556
535 558
535 563
535 565
535 573
535 592
535 598
535 599
536 559
536 567
536 587
537 563
537 571
537 574
537 575
537 585
537 588
537 590
538 596
538 598
539 544
539 552
539 583
539 590
539 593
539 596
540 555
540 573
540 598
541 545
541 547
541 556
541 567
541 570
541 571
541 589
542 564
542 568
542 574
542 585
542 597
543 551
543 557
543 559
543 561
543 577
543 594
544 553
544 562
544 574
544 581
544 585
544 591
545 557
545 574
545 579
545 580
545 584
545 591
546 559
546 570
546 581
546 589
547 586
548 551
548 558
548 579
548 580
548 597
549 553
549 557
549 559
549 569
549 589
550 586
551 557
551 564
551 567
551 575
552 555
552 560
552 563
552 566
552 576
552 580
552 590
553 564
553 584
553 589
553 591
553 593
554 560
554 576
554 591
555 559
555 561
555 571
555 576
555 582
555 595
556 559
556 574
556 593
556 867
557 576
557 584
558 567
558 572
558 584
558 599
559 592
559 597
560 561
560 565
560 571
560 582
560 584
561 574
561 587
561 591
562 572
562 573
562 574
563 567
563 574
563 587
564 581
565 572
565 576
565 587
565 588
565 590
566 588
566 591
566 592
566 593
567 573
567 578
567 589
567 591
567 592
568 570
568 594
569 573
569 597
570 586
570 858
571 572
571 577
571 580
571 587
571 591
571 596
572 580
572 582
573 584
574 587
574 598
575 590
575 598
576 589
576 596
577 585
577 587
577 597
578 583
580 582
581 592
581 594
581 597
582 585
582 587
582 597
583 598
584 591
584 593
585 594
585 597
586 596
588 598
589 593
590 595
590 599
591 594
591 596
595 599
600 609
600 633
600 640
600 663
600 665
600 666
600 685
600 690
600 698
600 722
600 742
600 743
600 747
600 768
600 781
600 783
600 791
601 608
601 613
601 628
601 629
601 631
601 647
601 655
601 678
601 684
601 693
601 700
601 717
601 719
601 720
601 753
601 771
601 796
601 798
601 799
602 607
602 613
602 626
602 629
602 631
602 632
602 635
602 650
602 656
602 657
602 664
602 668
602 676
602 677
602 679
602 684
602 690
602 693
602 743
602 766
602 790
602 796
603 622
603 628
603 652
603 657
603 663
603 667
603 673
603 718
603 726
603 731
603 736
603 739
603 740
603 748
603 771
604 605
604 613
604 622
604 625
604 627
604 628
604 636
604 639
604 661
604 666
604 685
604 698
604 728
604 756
604 764
604 780
604 785
604 786
604 790
605 609
605 618
605 637
605 638
605 641
605 647
605 648
605 652
605 657
605 674
605 683
605 692
605 698
605 710
605 716
605 779
605 784
606 607
606 620
606 632
606 659
606 669
606 679
606 681
606 689
606 695
606 701
606 717
606 746
606 753
606 758
606 767
606 782
606 793
606 795
607 616
607 618
607 628
607 634
607 650
607 657
607 658
607 666
607 675
607 693
607 699
607 713
607 718
607 724
607 738
607 740
607 747
607 756
607 778
607 782
607 785
608 611
608 630
608 662
608 668
608 675
608 682
608 693
608 699
608 714
608 743
608 759
608 767
608 783
608 787
608 797
609 617
609 653
609 657
609 664
609 670
609 680
609 697
609 706
609 713
609 721
609 723
609 732
609 770
609 798
609 873
610 611
610 635
610 636
610 639
610 644
610 657
610 675
610 676
610 686
610 708
610 711
610 713
610 722
610 726
610 730
610 743
610 755
610 761
610 764
611 614
611 616
611 619
611 622
611 626
611 639
611 658
611 663
611 692
611 704
611 718
611 727
611 729
611 742
611 747
611 756
611 760
611 764
611 772
611 775
611 784
611 796
611 797
612 618
612 638
612 639
612 647
612 651
612 658
612 659
612 683
612 684
612 702
612 706
612 708
612 712
612 724
612 727
612 738
612 749
612 750
612 763
612 769
612 779
612 789
612 792
613 630
613 643
613 656
613 661
613 662
613 668
613 677
613 695
613 699
613 703
613 708
613 712
613 716
613 718
613 755
613 757
613 764
613 769
613 777
613 792
614 616
614 617
614 639
614 649
614 662
614 668
614 684
614 685
614 690
614 698
614 713
614 758
614 765
614 772
614 778
614 787
615 633
615 669
615 672
615 679
615 682
615 689
615 697
615 704
615 705
615 710
615 715
615 723
615 731
615 732
615 733
615 735
615 752
615 759
615 770
615 777
615 778
615 782
615 785
615 794
615 862
616 624
616 627
616 628
616 639
616 658
616 667
616 674
616 675
616 677
616 678
616 680
616 696
616 697
616 753
616 755
616 761
616 780
616 796
616 797
617 645
617 651
617 654
617 657
617 666
617 678
617 695
617 710
617 711
617 743
617 754
617 756
617 766
617 772
618 620
618 633
618 652
618 656
618 668
618 671
618 685
618 692
618 708
618 713
618 723
618 728
618 743
618 754
618 757
618 760
618 763
619 621
619 623
619 631
619 637
619 642
619 675
619 679
619 692
619 694
619 700
619 709
619 714
619 720
619 728
619 729
619 732
619 744
619 754
619 760
619 763
619 786
619 798
620 630
620 632
620 633
620 637
620 652
620 657
620 675
620 677
620 707
620 715
620 716
620 720
620 732
620 734
620 738
620 767
620 775
620 784
620 786
620 793
621 624
621 627
621 639
621 650
621 665
621 667
621 671
621 672
621 673
621 696
621 699
621 709
621 720
621 736
621 738
621 741
621 754
621 759
621 786
622 623
622 625
622 628
622 641
622 655
622 660
622 673
622 675
622 679
622 683
622 700
622 716
622 726
622 751
622 754
622 765
622 773
622 776
622 785
622 793
622 797
623 625
623 633
623 651
623 653
623 671
623 689
623 711
623 716
623 718
623 720
623 723
623 733
623 734
623 736
623 739
623 751
623 759
623 771
623 785
623 791
624 632
624 662
624 680
624 681
624 685
624 690
624 708
624 710
624 715
624 732
624 737
624 741
624 760
625 641
625 678
625 695
625 698
625 704
625 706
625 712
625 717
625 740
625 744
625 757
625 759
625 762
625 765
625 774
625 775
625 778
625 794
626 637
626 640
626 653
626 657
626 662
626 667
626 673
626 674
626 679
626 688
626 701
626 704
626 711
626 712
626 720
626 724
626 736
626 737
626 750
626 754
626 761
626 763
626 767
627 637
627 638
627 644
627 654
627 658
627 674
627 686
627 690
627 705
627 709
627 721
627 758
627 788
627 789
627 793
627 797
628 633
628 650
628 673
628 678
628 683
628 690
628 703
628 710
628 740
628 750
628 755
628 769
628 791
628 966
629 637
629 645
629 658
629 666
629 670
629 680
629 696
629 721
629 754
629 758
629 776
629 794
629 891
630 639
630 643
630 648
630 709
630 718
630 732
630 761
630 762
630 765
630 775
630 790
631 632
631 652
631 665
631 675
631 683
631 702
631 709
631 733
631 735
631 738
631 756
631 759
631 762
631 798
632 633
632 634
632 640
632 659
632 711
632 723
632 724
632 730
632 731
632 734
632 740
632 746
632 754
632 771
632 779
632 782
632 792
633 647
633 654
633 696
633 705
633 712
633 713
633 725
633 737
633 742
633 761
633 772
633 776
633 786
633 796
634 642
634 668
634 672
634 687
634 688
634 700
634 727
634 739
634 741
634 742
634 748
634 753
634 768
634 771
634 798
634 799
635 641
635 649
635 656
635 659
635 677
635 684
635 693
635 701
635 703
635 705
635 708
635 711
635 713
635 717
635 745
635 759
635 783
635 792
635 794
636 637
636 638
636 648
636 656
636 663
636 665
636 682
636 684
636 685
636 701
636 706
636 714
636 733
636 747
636 751
636 797
637 640
637 652
637 658
637 665
637 671
637 688
637 693
637 697
637 699
637 704
637 706
637 730
637 739
637 752
637 756
637 757
637 779
637 783
638 676
638 685
638 709
638 715
638 728
638 735
638 740
638 757
638 760
638 796
638 798
639 641
639 661
639 669
639 676
639 688
639 708
639 724
639 731
639 741
639 776
639 782
639 793
640 648
640 662
640 666
640 675
640 686
640 687
640 690
640 704
640 707
640 717
640 723
640 726
640 728
640 731
640 732
640 752
640 754
640 758
640 762
640 769
640 772
640 778
640 787
640 788
640 794
641 644
641 647
641 653
641 655
641 664
641 670
641 675
641 734
641 742
641 759
641 790
641 794
642 645
642 655
642 657
642 681
642 687
642 689
642 720
642 726
642 743
642 760
642 776
642 778
642 780
642 783
642 792
642 796
643 644
643 684
643 693
643 718
643 719
643 730
643 746
643 750
643 764
643 765
643 770
643 782
643 791
644 647
644 659
644 667
644 682
644 690
644 699
644 707
644 717
644 723
644 725
644 734
644 794
645 648
645 660
645 666
645 670
645 673
645 688
645 690
645 695
645 698
645 705
645 746
645 749
645 757
645 762
645 764
645 783
646 669
646 670
646 677
646 692
646 697
646 705
646 707
646 718
646 719
646 727
646 731
646 741
646 742
646 749
646 756
646 761
646 763
646 770
646 771
646 772
646 781
646 785
646 795
647 651
647 667
647 669
647 674
647 682
647 705
647 708
647 710
647 711
647 746
647 747
647 759
647 774
647 777
647 784
647 788
648 651
648 663
648 666
648 671
648 683
648 689
648 693
648 701
648 702
648 704
648 714
648 720
648 721
648 774
648 776
648 788
648 790
649 651
649 660
649 668
649 669
649 672
649 679
649 681
649 728
649 729
649 733
649 757
649 773
649 775
649 787
650 660
650 676
650 694
650 704
650 705
650 706
650 712
650 715
650 724
650 758
650 777
650 788
651 661
651 663
651 664
651 681
651 682
651 713
651 742
651 746
651 753
651 760
651 774
651 776
651 792
651 799
652 653
652 670
652 677
652 681
652 693
652 712
652 720
652 722
652 744
652 752
652 771
652 793
652 794
653 670
653 684
653 710
653 726
653 733
653 734
653 749
653 754
653 758
653 774
654 661
654 671
654 680
654 681
654 682
654 684
654 708
654 710
654 757
654 760
654 761
654 778
655 672
655 675
655 681
655 700
655 703
655 716
655 727
655 737
655 747
655 759
655 761
655 763
655 768
655 772
655 774
655 783
655 784
655 786
656 658
656 663
656 675
656 686
656 693
656 700
656 707
656 725
656 731
656 732
656 733
656 734
656 766
656 775
656 787
657 674
657 677
657 680
657 682
657 702
657 710
657 714
657 718
657 719
657 735
657 748
657 751
657 753
657 763
657 766
657 769
657 783
657 787
657 797
658 682
658 693
658 694
658 730
658 744
658 764
658 776
659 669
659 673
659 678
659 688
659 702
659 711
659 721
659 722
659 736
659 741
659 754
659 757
659 762
659 768
659 773
659 791
659 795
659 798
660 665
660 675
660 677
660 683
660 701
660 721
660 723
660 725
660 730
660 750
660 763
660 785
660 787
661 670
661 712
661 716
661 720
661 729
661 731
661 765
661 780
661 790
661 795
661 797
662 669
662 672
662 689
662 692
662 699
662 724
662 729
662 742
662 748
662 749
662 769
662 771
662 791
662 794
663 694
663 696
663 698
663 715
663 727
663 745
663 756
663 757
663 760
663 766
663 774
663 777
663 784
663 790
664 675
664 679
664 692
664 703
664 711
664 743
664 766
664 769
664 778
665 667
665 670
665 687
665 691
665 699
665 702
665 704
665 709
665 733
665 734
665 744
665 752
665 758
665 761
665 771
665 775
665 778
665 794
665 795
665 851
666 675
666 681
666 690
666 699
666 702
666 704
666 709
666 712
666 730
666 736
666 737
666 740
666 741
666 748
666 766
666 770
666 771
666 773
666 775
666 786
667 681
667 683
667 692
667 699
667 721
667 738
667 739
667 751
667 764
667 775
667 778
667 792
668 669
668 672
668 694
668 703
668 722
668 724
668 732
668 763
668 783
668 796
668 798
669 672
669 688
669 689
669 690
669 698
669 710
669 724
669 733
669 734
669 747
669 758
669 759
669 762
669 768
669 784
670 671
670 676
670 678
670 692
670 693
670 696
670 707
670 723
670 726
670 728
670 729
670 731
670 747
670 748
670 749
670 754
670 757
670 762
670 770
670 779
671 681
671 711
671 727
671 731
671 739
671 748
671 758
671 762
671 776
671 777
671 791
671 798
672 681
672 683
672 690
672 698
672 699
672 712
672 721
672 727
672 738
672 761
672 763
672 774
672 794
673 676
673 681
673 689
673 690
673 702
673 734
673 737
673 738
673 740
673 755
673 769
673 774
673 775
673 784
674 681
674 715
674 719
674 731
674 734
674 758
674 761
674 763
674 764
674 765
674 770
674 771
674 789
674 798
675 733
675 759
675 781
676 677
676 679
676 699
676 717
676 740
676 742
676 749
676 774
676 776
676 796
677 679
677 703
677 711
677 731
677 739
677 775
677 776
677 785
677 796
678 691
678 697
678 706
678 711
678 716
678 725
678 726
678 734
678 740
678 753
678 758
678 760
678 765
678 776
678 780
678 799
679 682
679 704
679 706
679 728
679 740
679 764
679 765
679 768
679 777
679 782
680 720
680 727
680 745
680 759
680 764
680 770
680 776
680 778
680 790
680 794
681 690
681 694
681 702
681 746
681 749
681 782
681 791
681 794
681 798
682 707
682 708
682 723
682 743
682 747
682 762
682 763
682 769
682 771
682 782
682 796
683 685
683 688
683 700
683 705
683 714
683 720
683 726
683 746
683 748
683 768
683 774
683 776
683 791
684 687
684 704
684 719
684 721
684 722
684 729
684 756
684 780
684 785
684 799
685 689
685 694
685 706
685 712
685 721
685 732
685 734
685 736
685 737
685 757
685 763
685 768
685 772
685 776
685 787
686 692
686 700
686 703
686 723
686 744
686 759
686 761
686 769
686 774
686 777
686 785
686 792
687 688
687 708
687 717
687 721
687 724
687 733
687 743
687 748
687 754
687 766
687 773
687 782
687 794
688 699
688 729
688 733
688 747
688 750
688 762
688 768
688 773
688 785
688 792
689 705
689 709
689 711
689 718
689 719
689 720
689 740
689 753
689 757
689 768
689 769
689 771
689 772
689 776
689 783
690 703
690 707
690 720
690 726
690 732
690 740
690 741
690 749
690 755
690 761
690 784
690 796
690 799
691 692
691 704
691 705
691 709
691 714
691 748
691 766
691 775
691 776
691 777
691 778
691 779
691 782
691 783
691 789
691 791
691 798
692 711
692 719
692 741
692 745
692 755
692 759
692 768
692 775
692 787
693 698
693 706
693 711
693 712
693 720
693 731
693 739
693 748
693 764
693 771
693 772
693 773
693 796
693 797
694 696
694 699
694 701
694 728
694 741
694 751
694 752
694 760
694 771
694 778
694 789
694 790
694 795
695 699
695 716
695 726
695 728
695 729
695 730
695 753
695 764
695 778
695 779
696 716
696 732
696 735
696 741
696 744
696 760
696 764
696 773
696 780
696 781
696 791
696 792
696 799
697 703
697 706
697 719
697 726
697 727
697 732
697 748
697 752
697 767
697 780
697 795
698 699
698 703
698 721
698 732
698 752
698 755
698 768
698 774
698 779
698 780
698 786
698 796
699 701
699 702
699 711
699 728
699 737
699 758
699 774
699 779
699 783
700 708
700 711
700 726
700 733
700 740
700 769
700 778
700 781
700 796
701 703
701 719
701 724
701 729
701 754
701 772
701 780
701 781
701 783
701 787
701 794
702 709
702 730
702 746
702 748
702 754
702 781
702 782
703 715
703 716
703 723
703 733
703 761
703 780
703 794
703 799
704 707
704 721
704 722
704 742
704 752
704 777
704 783
704 785
704 793
705 721
705 739
705 762
705 767
705 773
705 774
706 726
706 750
706 760
706 763
706 773
706 783
706 791
707 723
707 733
707 757
707 763
707 779
707 781
707 788
707 791
707 798
708 728
708 732
708 744
708 749
708 759
708 766
708 772
708 777
708 778
709 710
709 713
709 723
709 730
709 746
709 748
709 761
709 764
709 765
709 767
709 795
709 799
710 720
710 725
710 726
710 755
710 763
710 783
710 787
711 716
711 736
711 745
711 748
711 762
711 769
711 788
711 793
711 795
711 797
711 798
712 720
712 721
712 729
712 739
712 741
712 752
712 771
712 773
712 780
712 783
712 786
713 724
713 741
713 746
713 748
713 759
713 761
713 765
713 774
713 775
713 776
713 786
713 788
714 722
714 726
714 758
714 759
714 774
714 780
714 783
714 786
714 791
714 795
715 720
715 740
715 751
715 772
715 779
715 789
715 790
716 752
716 754
716 783
716 790
716 798
717 724
717 731
717 743
717 749
717 750
717 752
717 768
717 774
717 786
717 790
718 721
718 735
718 736
718 759
718 764
718 776
718 788
719 755
719 761
720 729
720 739
720 742
720 757
720 774
720 794
720 799
721 741
721 750
721 751
721 760
721 779
721 785
721 787
721 791
721 792
722 728
722 741
722 759
722 769
722 776
722 779
722 990
723 743
723 755
723 759
723 788
723 792
724 732
724 770
724 780
724 781
725 734
725 736
725 743
725 747
725 749
725 759
725 771
725 778
725 785
725 795
726 745
726 746
726 750
726 757
726 763
726 768
726 774
726 781
726 782
726 784
726 789
726 792
727 734
727 767
727 793
728 738
728 742
728 752
728 753
728 762
728 773
728 777
728 781
728 786
728 790
728 791
728 796
729 733
729 736
729 738
729 745
729 765
729 769
729 771
729 793
729 795
730 735
730 736
730 741
730 745
730 753
730 778
730 779
730 785
731 738
731 748
731 756
731 763
731 768
731 778
732 742
732 744
732 770
732 771
733 749
733 762
733 781
733 792
733 799
734 752
734 754
734 780
734 798
735 737
735 743
735 750
735 764
735 772
735 777
735 779
735 780
735 786
735 790
735 795
735 796
736 737
736 747
736 749
736 757
736 760
736 773
736 787
736 788
736 798
737 753
737 754
737 763
737 778
737 785
737 792
737 795
738 751
738 763
738 777
738 785
738 792
738 795
739 742
739 751
739 757
739 767
739 768
740 749
740 750
740 759
740 768
740 778
740 779
740 791
740 792
741 744
741 756
741 767
741 786
741 791
741 799
742 749
742 757
742 776
742 777
742 783
743 747
743 752
743 756
743 759
743 778
743 786
743 792
743 797
743 813
744 745
744 753
744 763
744 774
744 798
745 773
745 779
746 756
746 760
746 769
746 772
746 778
746 779
747 757
747 775
747 780
747 783
747 786
748 750
748 764
748 766
749 755
749 757
749 774
749 782
749 783
749 786
749 794
750 755
750 758
750 762
750 763
750 955
751 755
751 759
751 765
751 786
752 761
752 763
752 782
752 783
752 784
752 786
753 785
754 757
754 758
754 770
754 772
754 774
754 778
754 791
755 759
755 760
755 784
755 787
755 788
755 792
755 797
756 762
756 767
756 768
756 773
756 777
756 785
756 789
756 792
757 760
757 761
757 766
757 778
757 785
757 788
758 765
758 780
758 789
758 792
758 795
759 761
759 764
759 769
759 776
759 783
759 798
760 762
760 775
760 778
760 784
760 786
760 787
760 795
761 787
761 788
761 790
761 791
761 799
762 773
762 776
762 781
763 781
763 785
763 786
763 796
763 798
764 785
764 792
765 779
765 782
765 798
765 799
766 769
766 775
766 781
766 799
767 768
767 795
768 777
768 793
769 772
769 782
769 792
769 794
770 778
770 787
770 797
771 774
772 785
772 788
772 790
772 796
773 781
773 787
773 796
774 783
775 778
775 784
776 789
777 780
777 785
778 779
778 786
778 790
778 795
779 792
779 796
779 797
780 785
780 786
780 788
781 796
782 795
783 787
783 790
783 797
784 786
784 795
785 791
786 791
786 792
787 797
788 798
789 796
794 796
794 798
795 796
800 818
800 826
800 833
800 845
800 869
800 871
800 882
800 900
800 903
800 959
800 963
800 967
800 983
800 993
801 803
801 831
801 833
801 837
801 838
801 843
801 845
801 856
801 862
801 893
801 894
801 915
801 917
801 920
801 922
801 947
801 960
801 973
801 975
801 983
801 992
802 823
802 835
802 840
802 854
802 871
802 880
802 883
802 892
802 893
802 914
802 915
802 917
802 934
802 949
802 960
802 962
802 988
802 991
803 818
803 823
803 827
803 833
803 835
803 840
803 841
803 842
803 852
803 858
803 859
803 870
803 900
803 901
803 917
803 920
803 934
803 937
803 956
803 961
803 968
803 975
803 982
803 984
804 815
804 830
804 834
804 835
804 838
804 850
804 861
804 862
804 871
804 875
804 918
804 924
804 936
804 948
804 953
804 963
804 980
804 983
805 811
805 843
805 865
805 880
805 888
805 889
805 893
805 894
805 902
805 921
805 968
805 996
805 999
806 807
806 841
806 842
806 853
806 868
806 898
806 901
806 917
806 920
806 924
806 966
806 972
806 989
806 990
807 827
807 832
807 837
807 838
807 852
807 864
807 869
807 883
807 898
807 900
807 904
807 920
807 930
807 933
807 946
807 952
807 961
807 974
807 991
808 827
808 828
808 833
808 834
808 835
808 841
808 850
808 872
808 879
808 883
808 899
808 900
808 907
808 911
808 912
808 918
808 926
808 927
808 934
808 944
808 949
808 958
808 966
808 976
808 979
808 983
809 819
809 820
809 823
809 824
809 833
809 844
809 858
809 886
809 889
809 894
809 896
809 906
809 922
809 931
809 932
809 935
809 938
809 944
809 946
809 949
809 955
809 959
809 962
809 966
809 971
809 976
809 987
809 988
809 991
810 812
810 820
810 832
810 840
810 855
810 857
810 866
810 877
810 882
810 887
810 896
810 901
810 924
810 936
810 957
810 972
810 974
810 996
811 820
811 839
811 848
811 849
811 863
811 874
811 875
811 888
811 896
811 904
811 914
811 916
811 918
811 926
811 938
811 942
811 944
811 951
811 960
811 972
812 816
812 818
812 826
812 830
812 832
812 841
812 847
812 890
812 891
812 908
812 918
812 933
812 934
812 976
813 820
813 828
813 836
813 846
813 862
813 863
813 864
813 865
813 869
813 883
813 885
813 904
813 906
813 921
813 936
813 937
813 944
813 947
813 952
813 955
813 963
813 967
813 992
813 994
814 824
814 825
814 845
814 849
814 858
814 864
814 870
814 877
814 878
814 881
814 891
814 910
814 916
814 934
814 937
814 951
814 952
814 966
814 971
814 987
814 991
814 992
815 825
815 831
815 833
815 849
815 851
815 861
815 862
815 866
815 868
815 875
815 877
815 893
815 895
815 903
815 907
815 918
815 935
815 942
815 952
815 961
815 962
815 972
815 975
815 977
815 982
815 984
815 987
815 997
816 820
816 823
816 846
816 849
816 855
816 856
816 866
816 883
816 887
816 906
816 909
816 940
816 944
816 958
816 961
816 970
816 976
816 982
816 984
816 985
816 989
817 839
817 844
817 849
817 873
817 878
817 881
817 886
817 893
817 905
817 916
817 925
817 926
817 948
817 958
817 973
817 987
817 993
818 851
818 861
818 864
818 865
818 892
818 955
818 956
818 960
818 963
818 968
818 992
819 820
819 822
819 839
819 849
819 854
819 859
819 872
819 879
819 895
819 896
819 900
819 905
819 906
819 918
819 921
819 927
819 945
819 950
819 957
819 959
819 968
819 973
819 993
819 996
819 998
819 999
820 827
820 836
820 843
820 853
820 855
820 877
820 885
820 886
820 913
820 919
820 943
820 949
820 953
820 964
820 993
821 822
821 830
821 842
821 856
821 874
821 875
821 882
821 889
821 892
821 903
821 910
821 916
821 935
821 960
821 964
821 977
821 982
822 827
822 842
822 857
822 871
822 880
822 887
822 890
822 898
822 901
822 914
822 927
822 952
822 953
822 959
822 963
822 967
822 977
823 831
823 832
823 844
823 867
823 872
823 873
823 885
823 887
823 910
823 912
823 915
823 919
823 922
823 924
823 941
823 975
823 998
824 825
824 831
824 833
824 837
824 848
824 849
824 850
824 852
824 856
824 865
824 866
824 877
824 904
824 905
824 925
824 930
824 942
824 946
824 954
824 957
824 962
824 971
824 991
824 996
825 833
825 839
825 851
825 859
825 873
825 877
825 884
825 885
825 896
825 900
825 905
825 911
825 920
825 935
825 939
825 952
825 977
825 988
826 827
826 831
826 832
826 861
826 884
826 895
826 911
826 928
826 935
826 954
826 971
826 994
827 836
827 849
827 863
827 864
827 872
827 875
827 877
827 878
827 890
827 894
827 901
827 905
827 917
827 960
827 964
827 971
827 981
827 993
828 832
828 845
828 865
828 870
828 908
828 909
828 915
828 917
828 918
828 920
828 931
828 932
828 958
828 959
828 969
828 986
829 843
829 860
829 869
829 887
829 889
829 910
829 916
829 919
829 935
829 947
829 958
829 971
829 978
829 986
829 994
830 834
830 838
830 885
830 893
830 896
830 936
830 945
830 958
830 961
830 975
830 978
830 986
831 835
831 836
831 839
831 861
831 865
831 878
831 884
831 894
831 901
831 927
831 936
831 950
831 961
831 964
831 966
831 968
831 991
831 992
832 850
832 851
832 852
832 870
832 871
832 872
832 887
832 924
832 932
832 946
832 947
833 840
833 865
833 876
833 887
833 888
833 895
833 896
833 905
833 908
833 925
833 938
833 944
833 948
833 960
833 980
833 981
833 984
834 863
834 867
834 875
834 886
834 891
834 911
834 924
834 943
834 952
834 958
834 963
834 969
834 986
834 994
835 850
835 855
835 871
835 879
835 884
835 894
835 896
835 907
835 922
835 930
835 947
835 955
835 974
836 837
836 838
836 875
836 876
836 882
836 897
836 914
836 923
836 939
836 965
836 978
836 985
836 988
836 990
836 991
836 992
836 999
837 838
837 840
837 842
837 852
837 870
837 894
837 899
837 913
837 923
837 947
837 956
837 959
837 969
837 972
837 982
837 985
838 839
838 840
838 843
838 855
838 856
838 870
838 883
838 885
838 926
838 928
838 933
838 934
838 937
838 943
838 947
838 963
838 967
838 968
838 974
838 982
839 840
839 843
839 852
839 858
839 874
839 882
839 883
839 905
839 910
839 925
839 941
839 942
839 948
839 949
839 958
839 959
839 990
840 843
840 844
840 848
840 865
840 894
840 899
840 907
840 913
840 918
840 927
840 928
840 936
840 960
840 980
840 986
840 990
841 844
841 852
841 855
841 866
841 879
841 883
841 898
841 908
841 919
841 920
841 922
841 933
841 960
841 964
841 979
841 982
841 990
841 994
841 999
842 845
842 850
842 864
842 875
842 909
842 928
842 941
842 945
842 951
842 952
842 956
842 982
842 995
843 844
843 863
843 875
843 884
843 890
843 896
843 898
843 903
843 904
843 908
843 911
843 913
843 938
843 948
843 957
843 966
843 983
844 862
844 868
844 887
844 891
844 914
844 927
844 943
844 946
844 949
844 952
844 957
844 974
844 976
844 991
844 995
845 846
845 850
845 852
845 859
845 867
845 870
845 873
845 884
845 891
845 901
845 908
845 922
845 942
845 950
845 970
845 972
845 975
845 977
845 978
845 997
846 847
846 848
846 853
846 855
846 856
846 871
846 899
846 906
846 912
846 933
846 938
846 963
846 970
846 974
846 981
846 983
846 984
846 991
846 998
846 999
847 851
847 854
847 855
847 859
847 861
847 872
847 899
847 904
847 915
847 917
847 924
847 930
847 943
847 944
847 974
847 983
847 995
847 997
848 850
848 855
848 856
848 889
848 901
848 904
848 908
848 913
848 937
848 945
848 954
848 961
848 971
848 983
848 984
849 863
849 883
849 902
849 924
849 934
849 950
849 959
849 960
849 969
849 978
849 979
849 986
849 989
850 855
850 867
850 873
850 875
850 890
850 902
850 906
850 924
850 943
850 944
850 947
850 951
850 979
850 984
850 988
850 989
850 993
851 854
851 884
851 901
851 905
851 914
851 919
851 921
851 923
851 930
851 946
851 958
851 959
851 960
851 967
851 968
851 969
851 988
851 995
852 891
852 895
852 915
852 920
852 922
852 928
852 939
852 942
852 948
852 953
852 964
852 966
852 979
852 989
853 862
853 877
853 882
853 885
853 891
853 894
853 895
853 898
853 899
853 909
853 911
853 922
853 935
853 941
853 959
853 980
853 983
853 986
854 872
854 874
854 880
854 908
854 929
854 939
854 940
854 963
854 981
854 984
854 991
854 993
854 997
855 865
855 876
855 879
855 892
855 900
855 906
855 919
855 920
855 932
855 942
855 954
855 956
855 965
855 975
856 865
856 870
856 882
856 905
856 910
856 923
856 943
856 951
856 952
857 869
857 871
857 878
857 890
857 902
857 914
857 921
857 924
857 947
857 950
857 956
857 959
857 967
857 999
858 860
858 871
858 892
858 907
858 909
858 913
858 916
858 925
858 927
858 939
858 954
858 977
859 865
859 868
859 876
859 886
859 890
859 905
859 925
859 929
859 954
859 963
859 966
859 968
859 977
859 979
859 987
859 989
860 889
860 894
860 897
860 911
860 919
860 923
860 933
860 935
860 947
860 958
860 972
860 975
860 988
860 991
861 863
861 880
861 887
861 889
861 897
861 899
861 918
861 926
861 928
861 930
861 944
861 991
862 875
862 886
862 898
862 901
862 924
862 935
862 936
862 940
862 958
862 965
862 966
862 968
862 981
863 868
863 875
863 884
863 901
863 906
863 907
863 918
863 927
863 933
863 953
863 970
863 985
863 989
863 990
864 869
864 879
864 886
864 892
864 896
864 898
864 899
864 906
864 911
864 920
864 936
864 942
864 970
864 983
864 987
865 867
865 873
865 881
865 883
865 886
865 890
865 913
865 921
865 926
865 929
865 931
865 932
865 953
865 982
866 872
866 892
866 898
866 901
866 918
866 921
866 927
866 950
866 956
866 973
866 974
866 984
867 871
867 874
867 893
867 917
867 928
867 945
867 947
867 949
867 963
867 964
867 968
867 974
867 975
867 978
867 994
867 995
867 996
867 997
868 878
868 890
868 913
868 921
868 925
868 936
868 945
868 947
868 974
868 978
868 990
868 991
868 998
869 884
869 888
869 890
869 899
869 900
869 904
869 907
869 916
869 917
869 919
869 928
869 945
869 951
869 969
870 874
870 908
870 911
870 912
870 922
870 932
870 946
870 948
870 985
871 903
871 907
871 912
871 923
871 932
871 940
871 941
871 954
871 966
871 975
871 977
871 979
871 983
871 990
872 875
872 913
872 918
872 927
872 947
872 958
872 967
872 990
872 993
872 994
872 995
872 997
873 877
873 890
873 894
873 903
873 906
873 915
873 918
873 932
873 940
873 941
873 956
873 958
873 991
873 992
874 877
874 887
874 889
874 906
874 914
874 915
874 922
874 949
874 966
874 972
874 978
874 993
875 885
875 898
875 901
875 923
875 926
875 928
875 968
875 974
875 975
875 987
875 998
876 878
876 887
876 891
876 893
876 897
876 900
876 902
876 905
876 921
876 926
876 934
876 940
876 955
876 963
876 966
876 975
876 985
877 883
877 888
877 894
877 898
877 914
877 942
877 943
877 956
877 958
877 963
877 977
877 978
877 979
878 888
878 891
878 892
878 909
878 915
878 916
878 937
878 938
878 950
879 891
879 903
879 908
879 938
879 981
879 983
879 987
880 882
880 898
880 918
880 924
880 928
880 931
880 952
880 967
880 971
880 993
880 995
881 884
881 897
881 912
881 925
881 929
881 948
881 951
881 953
881 963
881 970
881 996
882 893
882 949
882 951
882 988
882 997
883 885
883 886
883 888
883 893
883 896
883 907
883 911
883 928
883 929
883 941
883 944
883 981
883 995
884 910
884 912
884 915
884 917
884 923
884 944
884 950
884 966
884 976
884 985
884 989
884 995
884 998
885 890
885 895
885 897
885 903
885 907
885 947
885 948
885 953
885 961
885 966
885 985
885 987
885 991
886 890
886 915
886 938
886 939
886 944
886 971
886 979
886 986
886 991
886 993
886 998
887 894
887 912
887 930
887 934
887 966
887 969
887 979
887 980
887 981
887 994
887 997
888 889
888 894
888 902
888 912
888 922
888 931
888 947
888 949
888 954
888 958
888 967
888 970
888 980
889 891
889 898
889 907
889 952
889 961
889 995
890 895
890 896
890 905
890 912
890 915
890 917
890 939
890 942
890 945
890 952
890 953
890 954
890 957
890 985
891 905
891 910
891 911
891 918
891 925
891 930
891 951
891 952
891 956
891 985
891 990
891 991
891 996
891 997
892 894
892 907
892 922
892 929
892 954
892 964
892 981
892 992
893 913
893 953
893 964
893 970
893 982
893 987
894 895
894 926
894 927
894 937
894 941
894 947
894 949
894 950
894 963
894 968
894 982
894 983
894 987
894 988
894 992
895 918
895 926
895 943
895 952
895 957
895 965
895 967
895 976
895 979
895 987
896 902
896 913
896 916
896 920
896 931
896 959
896 968
896 973
896 976
896 980
896 981
896 988
897 902
897 907
897 926
897 927
897 946
897 948
897 963
897 966
897 979
897 994
898 900
898 923
898 932
898 940
898 949
898 958
898 973
898 997
899 914
899 918
899 929
899 938
899 939
899 953
899 957
899 970
899 989
900 911
900 912
900 914
900 926
900 946
900 947
900 965
900 969
900 972
900 973
900 982
900 992
900 995
901 905
901 947
901 950
901 981
901 989
901 994
902 919
902 927
902 943
902 948
902 949
902 950
902 952
902 956
902 975
902 987
903 923
903 935
903 939
903 947
903 949
903 953
903 964
903 966
903 968
903 982
903 993
904 907
904 915
904 957
904 963
904 971
904 982
904 992
904 999
905 918
905 923
905 928
905 929
905 947
905 956
905 960
905 970
905 981
905 984
905 993
906 913
906 921
906 924
906 949
906 954
906 962
906 969
906 977
906 978
906 981
906 982
906 983
906 988
907 929
907 940
907 943
907 946
907 947
907 950
907 961
907 965
907 981
907 992
908 910
908 923
908 927
908 936
908 949
908 965
908 976
908 992
908 993
908 995
909 913
909 915
909 924
909 942
909 955
909 966
909 974
909 979
909 982
909 983
909 986
910 913
910 920
910 925
910 934
910 938
910 940
910 944
910 953
910 958
910 986
910 991
910 992
910 997
911 920
911 928
911 931
911 933
911 934
911 967
911 969
911 987
912 938
912 940
912 947
912 970
912 978
912 979
912 988
912 995
912 998
913 926
913 939
913 946
913 950
913 957
913 959
913 972
913 975
913 982
913 986
913 992
914 917
914 925
914 930
914 947
914 953
914 956
914 957
914 971
914 976
914 977
914 990
915 934
915 948
915 950
915 955
915 965
915 966
915 967
915 971
915 975
916 924
916 927
916 936
916 947
916 974
916 979
916 988
916 994
916 996
917 931
917 985
917 996
918 924
918 931
918 932
918 967
918 978
918 985
918 994
919 922
919 923
919 928
919 935
919 946
919 958
919 959
919 965
919 966
919 970
919 977
919 987
920 924
920 935
920 943
920 956
920 959
920 961
920 970
920 985
920 996
921 925
921 931
921 962
921 972
921 975
921 978
921 986
922 936
922 982
922 984
922 986
922 989
923 930
923 931
923 936
923 944
923 980
923 985
923 986
923 990
923 992
924 929
924 931
924 963
924 968
924 973
924 979
924 991
925 940
925 945
925 949
925 957
925 962
925 977
925 997
926 927
926 935
926 940
926 945
926 950
926 953
926 967
926 972
926 974
926 995
926 998
927 929
927 932
927 939
927 941
927 942
927 954
927 956
927 967
927 972
927 988
928 930
928 944
928 955
928 971
928 972
928 978
928 979
928 994
928 995
929 939
929 948
929 950
929 976
929 983
929 984
929 986
930 939
930 948
930 955
930 957
930 974
930 992
930 994
931 935
931 936
931 950
931 952
931 955
931 956
931 960
931 967
931 997
932 942
932 960
932 962
932 967
932 977
932 998
933 951
933 959
933 965
933 973
933 977
933 985
933 997
934 937
934 952
934 960
934 961
934 962
935 936
935 952
935 955
935 961
935 963
935 970
935 977
935 982
936 939
936 940
936 968
936 980
937 976
937 987
938 959
938 969
938 976
938 982
938 999
939 944
939 950
939 978
939 980
939 984
939 998
940 969
940 971
940 974
941 944
941 951
941 952
941 978
941 985
941 987
941 996
942 949
942 970
942 972
942 980
942 983
942 984
942 987
942 989
943 956
943 985
943 991
943 995
944 953
944 961
944 969
944 987
945 951
945 963
945 968
945 975
945 998
945 999
946 958
946 962
946 982
947 977
947 983
947 986
947 999
948 952
948 955
948 957
948 971
948 973
948 983
948 986
948 996
949 971
949 974
949 986
950 959
950 984
950 994
951 956
951 957
951 963
951 965
951 979
952 962
952 972
952 981
953 966
954 960
954 963
954 966
954 967
954 970
954 981
955 958
955 967
955 975
955 990
955 991
956 977
956 979
956 992
957 958
957 970
957 972
957 990
957 998
958 976
958 980
958 991
958 999
959 961
959 973
959 983
959 984
959 987
959 991
960 961
960 967
960 974
962 974
962 976
962 986
962 991
962 994
962 998
963 966
963 974
963 988
964 971
964 977
964 986
964 991
964 997
965 968
965 991
965 993
966 973
966 974
966 982
967 968
967 973
967 985
967 986
967 987
967 988
967 991
967 993
967 995
967 996
968 975
968 981
968 997
969 973
969 975
969 977
969 992
969 993
970 987
970 999
971 979
971 980
971 981
971 992
972 976
972 983
972 999
973 976
973 980
973 982
973 987
974 975
974 984
974 987
974 999
975 983
975 987
976 988
976 997
976 999
977 998
978 995
978 998
979 998
980 983
980 994
980 996
981 994
982 984
983 989
983 996
984 989
984 991
986 987
986 998
988 994
989 998
990 994
990 996
991 993
991 999
993 995