# Nodes: 2000
0 76
0 101
1 6
1 80
1 123
2 25
2 56
2 1488
3 17
3 51
3 153
4 105
4 138
4 159
5 173
5 186
5 961
6 47
6 131
7 48
7 177
8 150
8 160
8 584
9 110
9 137
10 127
11 168
12 142
13 125
13 183
14 16
14 108
14 159
14 1232
15 83
15 115
15 116
15 133
15 137
16 178
16 197
18 35
18 162
18 849
19 34
19 58
19 93
19 158
20 71
21 199
22 139
24 83
24 128
24 148
25 106
26 34
27 61
28 36
28 98
28 135
29 107
30 69
30 78
30 88
31 179
33 136
33 679
34 103
35 58
35 150
35 153
36 131
36 148
37 166
37 179
37 682
38 106
39 95
39 97
39 150
39 1439
40 73
41 88
42 50
42 194
42 197
43 161
44 59
45 100
45 114
45 139
46 152
46 193
47 244
48 54
48 108
48 889
49 199
50 135
50 171
51 539
52 1756
53 158
54 75
54 84
54 192
56 125
56 186
56 199
57 124
57 130
57 136
58 116
60 62
60 164
61 77
62 112
62 152
62 1557
65 93
65 116
65 128
67 1932
68 103
69 182
70 88
70 105
70 1224
71 97
71 124
73 103
73 169
74 99
75 134
76 148
76 183
77 1068
78 126
78 166
79 95
79 147
79 163
80 113
81 124
82 102
82 152
82 183
82 193
83 128
85 124
85 141
86 152
86 154
88 96
88 99
88 164
88 1177
89 129
89 179
91 126
91 181
92 166
95 141
95 175
96 116
96 135
96 1187
97 103
97 528
98 122
101 136
101 157
102 110
102 1243
104 143
104 659
105 195
106 108
107 121
108 153
111 127
113 154
113 962
113 1383
116 154
116 1984
118 136
118 178
118 181
120 160
121 125
122 125
123 196
126 136
126 139
126 197
126 518
126 1048
128 170
130 140
131 161
131 168
136 180
138 161
138 183
139 1216
141 142
143 187
144 163
144 652
145 1422
146 177
147 1662
148 716
150 189
156 172
157 1193
158 174
159 170
159 183
160 187
162 1261
169 193
171 192
174 1787
175 194
177 179
177 1942
181 186
189 1671
190 192
191 1650
200 222
200 253
200 337
200 340
200 870
201 238
201 317
202 236
202 245
202 294
202 354
202 960
203 213
203 226
203 263
203 265
203 280
203 374
204 283
204 289
204 305
204 379
206 392
207 275
207 337
209 255
209 275
211 214
211 353
211 359
213 307
214 264
214 826
215 242
215 390
215 1546
216 280
217 221
217 228
218 348
219 299
219 329
219 355
219 1360
220 255
220 295
220 360
220 1908
221 267
221 344
222 279
222 353
223 338
223 339
223 386
224 261
224 352
224 377
225 396
226 242
226 318
226 343
226 360
227 367
228 312
229 267
229 277
229 378
230 231
230 343
231 232
231 291
232 370
235 291
235 318
235 353
235 368
235 385
236 266
236 341
238 240
239 262
239 305
239 385
239 1645
240 291
241 325
242 355
242 1682
243 299
244 772
245 307
245 391
246 277
246 308
246 1105
249 282
249 326
249 341
250 302
250 328
251 349
251 1972
252 275
252 284
252 299
252 1424
253 255
253 293
253 305
254 262
255 277
255 368
256 261
257 377
258 284
259 348
260 332
261 312
261 357
262 314
262 352
262 376
263 322
263 349
263 1725
264 296
266 320
266 336
266 340
267 355
268 311
269 297
269 1040
271 311
272 296
272 392
272 395
273 277
273 307
273 361
273 376
274 341
276 314
276 317
276 1937
277 284
278 1122
280 378
281 348
282 307
282 370
283 328
283 332
283 345
283 367
283 391
283 1460
285 1404
286 332
287 390
289 1503
290 322
292 352
292 362
292 368
294 347
296 359
296 371
296 377
298 880
299 1166
300 322
305 310
307 342
307 370
307 392
307 395
308 388
309 378
309 570
311 332
311 366
311 385
312 340
313 391
314 338
314 344
314 352
316 1904
317 346
318 394
318 794
319 472
320 370
322 345
323 344
325 330
325 397
328 399
329 393
331 337
331 350
332 360
333 398
334 388
334 393
335 345
335 374
337 603
338 350
341 1745
342 892
343 367
343 378
343 390
345 394
349 375
349 1632
351 357
353 377
353 392
353 393
353 684
355 377
357 370
359 1889
361 365
361 373
361 374
362 372
362 397
364 372
365 403
367 379
367 928
369 377
370 1281
371 386
371 617
374 396
384 396
384 693
386 1111
389 395
389 919
394 1466
400 456
400 457
402 599
403 546
404 407
404 478
405 585
406 518
406 531
407 495
407 537
409 490
409 561
410 412
410 432
410 538
410 560
410 595
411 556
411 557
412 414
412 451
413 478
413 536
413 561
413 598
414 491
414 515
415 437
415 528
415 544
415 560
416 468
416 480
417 432
417 566
418 591
419 440
420 473
420 487
420 496
420 587
421 493
421 520
422 440
422 538
422 1433
423 434
424 531
424 542
425 431
425 454
425 492
426 477
426 486
426 537
426 878
426 1474
427 583
427 585
429 581
429 599
430 1756
431 592
431 764
432 502
432 532
433 558
433 591
434 470
435 463
435 468
435 491
436 460
436 491
436 505
436 510
436 515
436 856
437 469
437 554
438 1325
439 457
439 469
440 524
440 530
440 536
440 548
441 546
441 576
441 594
441 871
443 484
443 521
443 543
443 557
443 571
443 576
444 501
444 519
444 524
446 520
447 530
447 578
449 517
449 539
450 583
451 552
451 1651
453 474
453 566
455 554
455 596
455 1927
456 519
458 459
458 539
459 480
459 483
460 474
461 546
461 569
461 581
461 1580
463 550
463 584
464 523
464 577
466 562
466 598
473 480
473 517
473 519
473 573
475 542
476 507
476 576
477 535
478 486
478 542
479 502
480 495
481 530
482 560
483 488
483 564
483 594
484 914
485 498
485 560
486 534
486 566
487 507
489 553
489 592
490 540
493 507
493 570
493 572
493 586
495 512
495 562
496 505
496 554
497 511
497 541
498 530
499 523
499 563
501 569
502 539
502 546
502 579
502 1555
503 513
504 584
505 547
506 544
506 581
507 548
507 1927
508 1175
509 586
510 517
510 1143
511 573
512 597
515 526
517 537
518 547
518 550
518 554
519 559
519 577
519 587
522 588
523 531
523 579
525 593
526 559
526 564
526 565
526 584
526 1716
527 576
528 566
533 559
534 545
536 560
540 559
540 593
540 621
542 1214
543 590
545 547
549 561
551 554
551 574
552 565
554 582
554 588
559 594
564 575
564 576
564 585
565 909
568 822
570 575
570 1683
574 590
574 1631
577 589
577 1642
588 1929
592 1308
597 599
598 1223
600 603
600 687
600 708
600 796
601 686
602 648
602 676
602 680
602 796
603 662
603 678
604 716
604 747
604 790
605 682
605 699
605 768
606 641
606 674
607 627
607 728
608 642
609 638
609 688
609 758
611 619
611 775
612 689
612 782
613 720
614 641
614 780
615 632
615 654
615 924
617 647
617 668
617 726
617 750
617 757
617 768
617 771
618 632
618 643
618 680
618 758
619 671
619 779
620 698
620 721
621 639
621 670
623 670
623 679
623 738
623 781
623 784
623 787
624 761
624 766
624 792
627 638
627 695
627 735
627 1027
628 651
628 656
628 739
628 772
628 1966
629 746
630 659
630 660
630 761
631 672
631 795
631 976
632 1560
633 704
634 697
636 1383
638 661
639 713
639 725
640 725
640 772
641 738
641 785
642 699
642 721
643 712
643 717
643 770
644 697
644 716
644 721
644 723
645 745
645 760
646 727
646 775
647 659
648 700
648 732
648 774
649 700
649 1763
650 733
652 765
653 685
654 737
655 736
656 757
657 785
657 791
658 739
658 1467
659 673
659 799
659 1298
659 1499
660 700
661 795
662 698
662 722
662 796
663 689
663 751
664 691
664 700
664 703
664 731
664 1378
666 756
666 780
668 697
668 720
668 779
668 784
669 1944
670 714
671 718
671 770
671 784
671 798
672 756
672 761
673 795
673 957
674 748
674 798
675 765
676 757
676 779
676 781
680 797
681 749
683 734
684 758
685 767
685 799
686 713
686 1932
687 709
688 767
689 731
692 757
692 760
693 747
694 709
694 745
694 790
695 707
695 718
695 759
698 700
698 712
698 716
698 727
699 723
699 729
700 738
701 779
702 754
703 722
703 795
703 799
705 744
708 746
712 737
712 777
712 783
713 716
714 758
714 1645
715 1052
715 1408
716 789
719 781
720 790
721 741
722 755
724 769
728 729
731 745
731 773
733 783
733 787
733 1321
733 1693
738 1746
746 757
749 778
752 1213
758 780
759 763
761 789
761 1364
762 790
765 976
766 1725
767 833
772 787
774 777
774 785
774 818
782 797
797 1498
800 847
800 964
800 997
801 861
801 878
801 882
801 986
802 883
803 835
803 893
803 930
804 877
804 925
804 984
806 809
806 867
806 930
807 846
807 868
807 934
808 907
808 951
808 958
808 988
809 836
809 913
810 825
810 834
810 869
810 934
810 950
811 826
811 873
811 888
812 861
812 905
812 995
813 962
813 997
814 827
814 959
815 928
816 968
816 987
817 833
818 980
819 860
820 871
820 883
820 918
820 942
821 975
821 1095
823 870
823 936
824 896
824 1338
825 948
826 863
826 1298
827 874
827 902
827 951
828 873
828 927
828 942
829 893
830 852
830 905
830 909
830 932
830 957
831 934
831 956
832 871
832 972
833 903
834 852
834 893
834 982
836 911
836 930
836 941
836 975
837 851
837 979
839 847
839 900
839 930
841 890
841 948
842 942
843 886
843 893
844 948
845 950
846 900
846 966
846 995
846 1172
847 888
848 857
848 993
849 945
849 1574
850 950
852 979
853 931
853 945
853 951
854 899
854 942
854 957
855 894
855 946
855 979
857 909
858 876
858 992
859 882
860 911
861 919
861 1205
862 900
862 902
862 997
862 1813
864 900
865 936
865 1468
866 913
868 962
868 1908
869 976
870 873
870 989
870 1356
872 896
873 942
873 984
877 970
877 971
877 987
878 921
880 883
880 890
881 918
882 888
882 910
882 966
883 889
884 990
884 997
885 903
885 1271
887 983
887 1667
887 1673
890 968
890 984
891 942
891 998
892 921
892 977
894 955
897 965
899 928
899 976
899 980
900 977
901 939
902 967
903 909
903 978
904 990
905 976
905 1331
909 912
909 913
909 933
910 928
910 939
910 996
911 938
911 947
912 931
912 983
914 919
914 984
914 1611
915 946
916 923
917 948
917 1489
917 1932
918 979
919 980
920 960
920 973
923 947
926 962
926 1526
927 973
927 996
928 940
931 937
931 958
932 956
933 956
936 983
937 996
939 992
940 949
940 996
942 982
942 1013
949 984
954 980
955 974
959 978
962 1892
971 1225
973 993
976 989
981 984
992 994
994 999
1001 1098
1001 1106
1001 1123
1001 1133
1003 1116
1003 1145
1003 1172
1005 1051
1006 1082
1006 1110
1007 1096
1008 1019
1009 1177
1010 1016
1010 1099
1010 1133
1011 1141
1011 1170
1012 1038
1012 1054
1012 1057
1012 1137
1012 1197
1013 1077
1013 1084
1013 1122
1013 1162
1015 1039
1015 1053
1016 1104
1016 1156
1017 1198
1018 1049
1018 1096
1018 1197
1019 1084
1019 1128
1019 1132
1020 1784
1021 1188
1022 1067
1022 1586
1023 1041
1023 1103
1024 1151
1025 1051
1025 1085
1025 1113
1027 1036
1027 1088
1027 1126
1028 1106
1028 1121
1028 1123
1028 1124
1028 1149
1030 1056
1030 1159
1031 1073
1031 1302
1032 1068
1033 1039
1033 1068
1034 1101
1034 1133
1034 1156
1035 1131
1036 1050
1036 1092
1036 1132
1037 1151
1039 1057
1039 1083
1040 1056
1040 1131
1040 1180
1041 1061
1041 1066
1041 1157
1042 1175
1044 1186
1045 1068
1046 1078
1047 1197
1049 1148
1051 1090
1051 1094
1051 1098
1051 1361
1052 1161
1052 1190
1053 1085
1053 1101
1053 1137
1053 1147
1054 1116
1057 1171
1058 1119
1058 1155
1058 1284
1059 1061
1061 1068
1061 1131
1063 1163
1063 1178
1067 1082
1067 1126
1068 1110
1068 1157
1069 1082
1069 1686
1070 1127
1071 1157
1072 1213
1073 1120
1073 1193
1074 1688
1076 1092
1077 1107
1077 1138
1078 1167
1080 1180
1081 1159
1082 1136
1083 1084
1083 1096
1083 1107
1084 1096
1084 1610
1086 1108
1087 1112
1087 1124
1089 1186
1090 1156
1092 1107
1092 1130
1093 1136
1094 1096
1094 1100
1094 1112
1094 1169
1096 1131
1097 1103
1097 1126
1100 1151
1102 1131
1104 1105
1113 1196
1115 1119
1116 1144
1117 1156
1117 1167
1118 1182
1119 1152
1119 1199
1121 1158
1121 1163
1122 1152
1122 1159
1122 1176
1123 1156
1123 1157
1124 1179
1126 1134
1126 1199
1127 1154
1128 1129
1130 1194
1131 1160
1133 1148
1136 1161
1137 1187
1139 1178
1142 1618
1144 1433
1146 1176
1150 1157
1150 1171
1152 1297
1155 1177
1156 1185
1157 1196
1157 1479
1162 1183
1164 1198
1166 1184
1166 1194
1173 1194
1174 1189
1175 1196
1177 1180
1179 1543
1181 1187
1182 1198
1185 1406
1187 1776
1191 1383
1200 1218
1200 1247
1200 1259
1200 1314
1201 1263
1201 1269
1201 1391
1202 1204
1203 1314
1203 1317
1203 1345
1203 1348
1204 1205
1204 1333
1204 1383
1205 1248
1205 1264
1206 1357
1206 1368
1207 1348
1207 1368
1208 1249
1208 1363
1209 1257
1209 1340
1209 1551
1211 1298
1212 1218
1212 1219
1212 1318
1212 1396
1213 1382
1215 1335
1216 1278
1216 1369
1216 1473
1217 1241
1219 1230
1220 1314
1221 1306
1222 1278
1222 1392
1224 1226
1224 1394
1224 1756
1225 1284
1225 1330
1226 1232
1226 1265
1226 1350
1228 1281
1229 1304
1229 1329
1230 1237
1230 1320
1231 1319
1231 1343
1232 1314
1233 1241
1234 1285
1234 1310
1235 1322
1236 1281
1236 1343
1237 1256
1237 1314
1237 1389
1238 1252
1238 1276
1238 1288
1239 1343
1240 1348
1241 1326
1241 1398
1242 1975
1244 1364
1244 1370
1245 1319
1245 1331
1246 1305
1247 1256
1247 1287
1247 1348
1250 1256
1250 1286
1252 1254
1252 1289
1252 1298
1253 1254
1253 1337
1253 1364
1254 1265
1255 1368
1256 1380
1257 1275
1257 1328
1258 1259
1258 1312
1258 1363
1259 1262
1259 1313
1260 1307
1260 1354
1260 1478
1261 1309
1261 1326
1261 1345
1261 1398
1262 1345
1263 1266
1264 1282
1266 1339
1267 1270
1267 1315
1268 1367
1269 1352
1271 1369
1274 1291
1275 1328
1275 1330
1275 1341
1276 1279
1276 1300
1276 1316
1276 1327
1277 1366
1278 1313
1280 1360
1281 1303
1281 1346
1282 1301
1283 1316
1283 1342
1285 1286
1286 1302
1287 1313
1287 1344
1287 1386
1288 1348
1289 1326
1290 1394
1290 1472
1291 1370
1292 1356
1292 1360
1293 1380
1293 1398
1294 1330
1294 1386
1296 1379
1297 1322
1297 1396
1299 1348
1300 1617
1302 1324
1303 1390
1304 1319
1304 1513
1305 1306
1305 1336
1307 1386
1308 1330
1308 1384
1309 1332
1310 1377
1311 1388
1311 1396
1317 1352
1317 1599
1318 1323
1318 1366
1322 1346
1323 1348
1325 1352
1325 1372
1325 1375
1326 1392
1329 1394
1331 1366
1331 1370
1331 1371
1331 1612
1331 1925
1332 1364
1332 1501
1337 1338
1337 1372
1339 1391
1341 1603
1342 1384
1349 1397
1353 1387
1353 1393
1359 1398
1362 1435
1363 1386
1364 1368
1368 1391
1369 1375
1373 1376
1373 1384
1377 1785
1378 1398
1378 1770
1386 1395
1387 1394
1401 1408
1402 1503
1402 1552
1402 1562
1403 1422
1403 1482
1403 1486
1403 1522
1403 1536
1403 1590
1404 1408
1404 1461
1404 1478
1404 1528
1404 1537
1404 1553
1405 1484
1405 1493
1406 1447
1406 1533
1406 1540
1406 1550
1407 1522
1407 1547
1408 1477
1408 1503
1408 1518
1408 1519
1409 1420
1409 1520
1409 1582
1410 1473
1410 1546
1411 1483
1411 1536
1412 1418
1412 1432
1412 1490
1413 1545
1413 1568
1413 1584
1414 1507
1415 1467
1415 1507
1416 1429
1416 1483
1417 1539
1418 1422
1419 1576
1420 1452
1420 1595
1421 1437
1421 1476
1421 1516
1422 1505
1422 1566
1422 1668
1423 1447
1423 1561
1424 1437
1424 1462
1424 1491
1424 1571
1426 1447
1426 1475
1426 1543
1427 1495
1428 1460
1428 1545
1428 1567
1428 1590
1429 1525
1429 1546
1429 1597
1430 1550
1430 1565
1431 1466
1432 1442
1432 1557
1432 1576
1433 1434
1433 1456
1433 1552
1433 1554
1433 1927
1434 1451
1434 1572
1436 1465
1436 1479
1436 1580
1437 1478
1437 1484
1437 1546
1438 1510
1438 1532
1438 1555
1439 1565
1441 1527
1441 1558
1443 1511
1443 1518
1444 1559
1445 1573
1447 1465
1447 1478
1448 1462
1448 1544
1448 1559
1449 1580
1450 1471
1450 1483
1454 1547
1454 1564
1455 1489
1455 1949
1456 1491
1456 1591
1458 1556
1459 1468
1460 1504
1460 1556
1461 1472
1461 1567
1463 1582
1464 1554
1464 1907
1465 1529
1466 1471
1466 1510
1466 1580
1467 1588
1468 1486
1468 1591
1468 1995
1469 1543
1469 1551
1469 1552
1469 1553
1470 1498
1470 1529
1470 1965
1472 1520
1472 1538
1473 1502
1476 1576
1476 1594
1476 1598
1477 1490
1478 1564
1479 1494
1480 1540
1482 1870
1483 1487
1484 1533
1484 1558
1484 1569
1486 1489
1488 1498
1488 1525
1488 1536
1488 1568
1489 1509
1489 1559
1491 1492
1491 1587
1491 1589
1491 1598
1492 1495
1492 1513
1492 1523
1493 1512
1493 1584
1494 1525
1494 1553
1494 1597
1496 1522
1496 1527
1496 1557
1496 1566
1499 1543
1500 1589
1501 1508
1501 1579
1504 1541
1505 1514
1505 1522
1505 1548
1505 1559
1506 1597
1507 1548
1508 1512
1508 1548
1508 1588
1510 1521
1510 1540
1511 1572
1511 1584
1513 1541
1515 1529
1515 1565
1515 1581
1518 1547
1518 1548
1518 1589
1519 1564
1520 1575
1521 1576
1524 1529
1526 1532
1526 1579
1527 1598
1528 1545
1528 1585
1529 1564
1529 1575
1531 1561
1534 1578
1534 1587
1535 1561
1536 1583
1538 1578
1538 1584
1543 1551
1546 1579
1549 1572
1550 1559
1550 1569
1550 1583
1551 1824
1552 1596
1552 1668
1554 1570
1554 1583
1555 1570
1556 1566
1567 1597
1578 1585
1582 1583
1586 1597
1600 1743
1601 1678
1602 1662
1602 1764
1603 1657
1603 1666
1603 1757
1603 1773
1604 1714
1604 1744
1604 1756
1604 1788
1605 1639
1606 1721
1607 1655
1607 1743
1608 1697
1608 1783
1609 1695
1609 1755
1610 1744
1610 1756
1610 1787
1611 1643
1611 1645
1611 1668
1611 1677
1613 1676
1613 1699
1613 1789
1614 1618
1614 1681
1614 1729
1614 1752
1615 1687
1615 1733
1617 1637
1618 1702
1618 1718
1622 1627
1622 1703
1622 1722
1623 1721
1623 1751
1623 1754
1624 1789
1625 1628
1626 1641
1626 1671
1626 1779
1627 1644
1627 1677
1628 1656
1629 1644
1629 1719
1630 1707
1631 1642
1631 1740
1632 1941
1633 1648
1633 1651
1633 1676
1633 1745
1633 1767
1633 1908
1634 1711
1635 1704
1635 1746
1635 1779
1636 1638
1636 1658
1637 1655
1637 1768
1638 1650
1638 1680
1640 1718
1641 1686
1641 1770
1642 1717
1642 1781
1643 1701
1643 1793
1644 1715
1644 1736
1644 1740
1647 1649
1648 1662
1648 1781
1648 1796
1650 1983
1652 1781
1653 1701
1653 1747
1653 1796
1654 1683
1654 1770
1654 1777
1655 1729
1656 1755
1657 1658
1657 1738
1657 1767
1658 1747
1659 1727
1660 1679
1660 1710
1661 1678
1661 1699
1661 1711
1661 1750
1661 1781
1662 1746
1666 1753
1666 1777
1666 1973
1667 1729
1667 1740
1667 1753
1667 1762
1668 1711
1669 1678
1669 1687
1670 1683
1670 1695
1672 1739
1673 1712
1673 1744
1675 1723
1676 1725
1677 1718
1677 1737
1678 1714
1679 1706
1679 1779
1680 1687
1680 1754
1680 1782
1680 1794
1681 1726
1682 1715
1684 1774
1684 1793
1685 1716
1686 1719
1687 1727
1687 1738
1687 1764
1687 1783
1687 1784
1688 1699
1688 1725
1688 1735
1689 1697
1691 1709
1691 1749
1691 1762
1692 1693
1692 1695
1692 1708
1692 1738
1692 1750
1696 1724
1696 1736
1697 1719
1698 1706
1698 1783
1698 1792
1699 1752
1703 1789
1703 1796
1704 1739
1704 1773
1706 1751
1706 1765
1706 1772
1708 1720
1708 1773
1709 1722
1710 1720
1711 1712
1711 1742
1711 1773
1712 1767
1712 1786
1712 1792
1714 1725
1714 1756
1714 1777
1717 1733
1719 1739
1719 1755
1721 1788
1721 1799
1722 1761
1722 1762
1723 1757
1724 1733
1724 1774
1726 1758
1726 1763
1729 1765
1729 1792
1732 1751
1732 1776
1733 1761
1734 1752
1734 1776
1735 1754
1735 1760
1737 1739
1737 1748
1737 1765
1737 1780
1741 1750
1742 1769
1744 1775
1746 1786
1747 1784
1749 1773
1751 1784
1751 1788
1752 1758
1753 1755
1756 1775
1759 1779
1760 1765
1760 1786
1765 1770
1766 1799
1766 1871
1771 1789
1772 1777
1773 1799
1785 1827
1788 1822
1789 1791
1800 1830
1800 1934
1801 1890
1801 1904
1803 1955
1804 1815
1804 1929
1805 1971
1806 1892
1806 1969
1807 1995
1808 1841
1809 1831
1809 1920
1809 1932
1810 1836
1810 1865
1810 1948
1811 1853
1811 1937
1812 1887
1813 1861
1813 1978
1814 1924
1815 1821
1815 1857
1815 1878
1815 1882
1815 1916
1815 1944
1815 1986
1816 1951
1817 1853
1817 1991
1818 1857
1819 1862
1819 1924
1820 1897
1821 1824
1821 1889
1821 1963
1821 1982
1822 1832
1823 1880
1823 1919
1823 1973
1823 1995
1824 1874
1824 1931
1825 1882
1825 1951
1827 1841
1827 1846
1827 1853
1827 1884
1827 1954
1827 1963
1829 1851
1829 1901
1829 1918
1829 1970
1832 1897
1832 1949
1833 1863
1833 1882
1834 1924
1834 1925
1835 1934
1836 1844
1836 1865
1836 1954
1836 1997
1837 1871
1837 1881
1837 1976
1837 1998
1838 1860
1839 1922
1840 1852
1841 1980
1842 1925
1843 1881
1843 1972
1845 1865
1845 1867
1846 1856
1846 1899
1847 1927
1848 1959
1849 1909
1850 1863
1850 1973
1851 1934
1852 1988
1853 1969
1854 1857
1857 1986
1858 1956
1859 1870
1859 1878
1859 1955
1859 1994
1861 1870
1861 1900
1861 1950
1862 1896
1862 1913
1862 1967
1863 1895
1864 1926
1865 1894
1865 1923
1866 1908
1866 1917
1866 1939
1869 1904
1869 1959
1870 1950
1871 1899
1872 1928
1872 1935
1872 1953
1872 1988
1873 1985
1874 1977
1876 1946
1876 1959
1876 1964
1879 1964
1880 1962
1881 1887
1882 1898
1884 1965
1886 1992
1887 1923
1889 1942
1890 1956
1891 1936
1891 1954
1892 1898
1893 1903
1896 1957
1898 1980
1899 1985
1901 1928
1905 1924
1905 1968
1906 1908
1907 1958
1908 1909
1909 1911
1910 1941
1913 1961
1915 1951
1916 1966
1916 1977
1916 1986
1917 1995
1920 1930
1920 1963
1920 1972
1922 1923
1922 1951
1925 1958
1930 1939
1930 1953
1931 1963
1931 1989
1932 1950
1933 1937
1933 1989
1939 1991
1943 1993
1944 1949
1945 1978
1948 1971
1952 1959
1952 1994
1953 1982
1954 1966
1956 1973
1968 1993
1984 1992