0 12
0 14
0 15
0 22
0 24
0 41
0 55
0 60
0 70
0 73
0 79
0 84
0 99
0 106
0 108
0 116
0 139
0 140
0 151
0 155
0 158
0 159
0 179
0 180
0 181
0 182
0 199
0 208
0 240
0 248
0 255
0 282
0 286
0 310
0 315
0 333
0 349
0 366
1 5
1 19
1 21
1 22
1 28
1 36
1 56
1 85
1 99
1 100
1 134
1 138
1 142
1 144
1 178
1 183
1 190
1 196
1 205
1 207
1 211
1 212
1 222
1 228
1 232
1 235
1 240
1 249
1 259
1 271
1 272
1 278
1 303
1 305
1 310
1 316
1 322
1 327
1 334
1 337
1 339
1 352
1 358
1 360
1 389
1 396
2 4
2 6
2 30
2 34
2 51
2 59
2 111
2 121
2 124
2 128
2 131
2 145
2 163
2 168
2 171
2 184
2 192
2 233
2 251
2 252
2 289
2 290
2 303
2 312
2 320
2 330
2 331
2 351
2 358
2 380
2 384
3 13
3 22
3 31
3 45
3 47
3 54
3 56
3 58
3 62
3 71
3 84
3 92
3 104
3 127
3 152
3 161
3 168
3 170
3 179
3 188
3 189
3 217
3 221
3 238
3 246
3 264
3 266
3 269
3 283
3 290
3 292
3 296
3 304
3 308
3 332
3 338
3 341
3 346
3 363
3 391
3 910
4 13
4 15
4 25
4 26
4 27
4 50
4 55
4 73
4 74
4 81
4 99
4 126
4 149
4 155
4 157
4 161
4 162
4 177
4 205
4 207
4 224
4 225
4 243
4 254
4 261
4 265
4 273
4 279
4 280
4 286
4 287
4 289
4 303
4 316
4 372
4 379
4 381
4 388
4 391
4 399
5 12
5 31
5 33
5 44
5 45
5 46
5 48
5 49
5 59
5 67
5 79
5 87
5 89
5 95
5 101
5 107
5 112
5 113
5 138
5 139
5 141
5 142
5 159
5 179
5 202
5 214
5 216
5 243
5 252
5 266
5 289
5 290
5 302
5 313
5 319
5 340
5 342
5 362
5 372
5 373
5 399
6 11
6 13
6 25
6 36
6 46
6 59
6 64
6 73
6 75
6 80
6 88
6 118
6 120
6 125
6 127
6 133
6 139
6 140
6 156
6 164
6 188
6 191
6 217
6 226
6 236
6 239
6 257
6 258
6 273
6 281
6 297
6 305
6 308
6 319
6 331
6 338
6 342
6 343
6 344
6 357
6 361
6 363
6 367
6 373
6 377
6 386
6 389
6 393
6 399
6 1030
7 20
7 26
7 29
7 44
7 51
7 61
7 70
7 92
7 108
7 128
7 159
7 170
7 211
7 222
7 227
7 231
7 236
7 239
7 256
7 290
7 310
7 332
7 349
7 355
7 365
7 391
7 393
8 10
8 27
8 35
8 60
8 65
8 75
8 89
8 118
8 128
8 144
8 166
8 169
8 213
8 235
8 248
8 253
8 255
8 257
8 270
8 274
8 302
8 304
8 307
8 315
8 318
8 394
9 13
9 17
9 19
9 25
9 31
9 33
9 47
9 53
9 54
9 56
9 58
9 75
9 78
9 79
9 81
9 90
9 98
9 116
9 134
9 154
9 162
9 187
9 199
9 200
9 255
9 256
9 267
9 272
9 282
9 283
9 318
9 320
9 323
9 344
9 357
9 360
9 367
9 369
10 13
10 14
10 15
10 25
10 29
10 41
10 59
10 61
10 75
10 99
10 122
10 134
10 137
10 156
10 164
10 166
10 186
10 192
10 203
10 212
10 218
10 240
10 247
10 260
10 263
10 267
10 276
10 303
10 306
10 310
10 328
10 329
10 346
10 351
10 368
10 374
10 380
10 388
10 393
11 27
11 30
11 39
11 50
11 64
11 67
11 68
11 72
11 87
11 122
11 139
11 140
11 162
11 166
11 171
11 183
11 184
11 195
11 201
11 212
11 215
11 222
11 223
11 227
11 254
11 261
11 262
11 269
11 286
11 288
11 289
11 292
11 303
11 309
11 316
11 317
11 327
11 328
11 333
11 336
11 345
11 365
11 375
11 393
12 18
12 28
12 34
12 35
12 64
12 67
12 71
12 79
12 82
12 84
12 89
12 101
12 139
12 166
12 176
12 196
12 206
12 210
12 217
12 219
12 223
12 224
12 241
12 244
12 256
12 268
12 279
12 283
12 284
12 300
12 321
12 323
12 334
12 338
12 341
12 344
12 345
12 346
12 349
12 358
12 368
12 375
12 377
12 385
12 397
13 16
13 39
13 43
13 44
13 45
13 49
13 62
13 86
13 89
13 90
13 109
13 113
13 115
13 121
13 161
13 179
13 214
13 221
13 222
13 229
13 232
13 236
13 247
13 278
13 281
13 291
13 304
13 316
13 320
13 331
13 356
13 370
13 382
14 32
14 33
14 34
14 50
14 55
14 69
14 83
14 108
14 116
14 131
14 135
14 141
14 142
14 154
14 156
14 158
14 162
14 165
14 170
14 173
14 182
14 185
14 194
14 203
14 206
14 208
14 217
14 218
14 227
14 232
14 233
14 248
14 249
14 255
14 256
14 263
14 278
14 285
14 293
14 297
14 299
14 300
14 302
14 305
14 314
14 316
14 333
14 338
14 350
14 351
14 360
14 385
14 389
14 390
15 31
15 57
15 62
15 72
15 77
15 83
15 85
15 88
15 102
15 112
15 113
15 116
15 120
15 125
15 130
15 142
15 147
15 162
15 164
15 166
15 168
15 185
15 194
15 204
15 211
15 229
15 232
15 246
15 253
15 290
15 296
15 297
15 309
15 310
15 314
15 318
15 322
15 325
15 328
15 339
15 342
15 346
15 351
15 361
15 369
15 394
15 395
15 398
16 23
16 33
16 45
16 50
16 53
16 68
16 69
16 79
16 135
16 142
16 161
16 174
16 186
16 198
16 209
16 219
16 222
16 228
16 250
16 264
16 268
16 270
16 273
16 278
16 279
16 285
16 293
16 305
16 311
16 320
16 322
16 326
16 336
16 348
16 349
16 350
16 360
16 380
16 381
16 387
16 390
17 18
17 23
17 74
17 94
17 104
17 122
17 133
17 140
17 154
17 164
17 174
17 198
17 209
17 211
17 255
17 295
17 302
17 303
17 307
17 311
17 314
17 347
17 364
17 369
17 381
17 384
17 393
17 394
18 21
18 28
18 45
18 46
18 47
18 48
18 50
18 69
18 100
18 105
18 109
18 112
18 139
18 157
18 180
18 187
18 192
18 205
18 219
18 228
18 245
18 254
18 258
18 274
18 286
18 288
18 301
18 304
18 314
18 319
18 329
18 338
18 340
18 344
18 355
18 357
18 369
18 373
18 379
18 383
19 33
19 55
19 57
19 62
19 64
19 93
19 96
19 109
19 117
19 130
19 136
19 147
19 168
19 206
19 207
19 209
19 211
19 221
19 246
19 250
19 253
19 257
19 259
19 262
19 279
19 288
19 294
19 300
19 324
19 339
19 355
19 358
19 363
19 365
19 376
19 390
20 21
20 48
20 53
20 57
20 60
20 70
20 84
20 112
20 115
20 116
20 118
20 129
20 133
20 172
20 176
20 198
20 201
20 212
20 213
20 216
20 220
20 239
20 243
20 257
20 263
20 264
20 290
20 299
20 300
20 324
20 328
20 331
20 339
20 344
20 345
20 347
20 349
20 357
20 368
20 380
20 384
20 397
21 25
21 38
21 52
21 54
21 61
21 62
21 65
21 94
21 97
21 105
21 120
21 130
21 137
21 155
21 176
21 188
21 225
21 227
21 241
21 244
21 246
21 250
21 273
21 282
21 298
21 308
21 309
21 314
21 318
21 322
21 332
21 337
21 359
21 364
21 369
21 382
21 383
21 390
21 391
21 396
22 25
22 30
22 31
22 39
22 42
22 54
22 65
22 76
22 78
22 93
22 95
22 102
22 124
22 153
22 156
22 164
22 188
22 193
22 194
22 217
22 220
22 224
22 233
22 246
22 256
22 257
22 260
22 270
22 290
22 309
22 323
22 325
22 327
22 338
22 339
22 341
22 373
22 377
22 380
22 385
23 24
23 39
23 41
23 53
23 68
23 86
23 91
23 105
23 143
23 161
23 171
23 192
23 195
23 214
23 223
23 228
23 249
23 253
23 258
23 263
23 270
23 273
23 290
23 295
23 309
23 328
23 353
23 357
23 369
23 372
23 397
23 399
24 47
24 61
24 94
24 112
24 114
24 115
24 133
24 143
24 145
24 149
24 158
24 183
24 191
24 202
24 212
24 222
24 237
24 240
24 258
24 270
24 280
24 284
24 295
24 310
24 336
24 344
24 348
24 354
24 359
24 370
24 371
24 374
24 1514
25 30
25 36
25 38
25 63
25 74
25 82
25 84
25 107
25 117
25 132
25 143
25 145
25 153
25 171
25 183
25 184
25 191
25 205
25 214
25 227
25 255
25 266
25 284
25 296
25 301
25 304
25 318
25 319
25 321
25 325
25 340
25 343
25 344
25 353
25 362
25 382
25 387
25 388
25 989
26 39
26 42
26 49
26 60
26 66
26 95
26 131
26 141
26 145
26 148
26 153
26 157
26 174
26 188
26 198
26 203
26 220
26 244
26 248
26 263
26 267
26 273
26 291
26 297
26 309
26 310
26 315
26 316
26 321
26 347
26 358
26 362
26 363
26 372
26 375
26 385
27 31
27 39
27 47
27 52
27 62
27 63
27 65
27 67
27 88
27 90
27 92
27 109
27 112
27 120
27 127
27 134
27 156
27 162
27 163
27 166
27 172
27 185
27 195
27 203
27 209
27 210
27 212
27 223
27 262
27 266
27 267
27 277
27 295
27 296
27 310
27 319
27 323
27 328
27 374
27 386
28 29
28 84
28 103
28 137
28 145
28 152
28 170
28 204
28 210
28 233
28 238
28 243
28 245
28 274
28 286
28 292
28 303
28 317
28 321
28 327
28 348
28 366
28 378
28 379
28 385
28 392
29 32
29 47
29 48
29 57
29 73
29 96
29 104
29 109
29 126
29 127
29 141
29 144
29 151
29 153
29 167
29 168
29 169
29 189
29 201
29 216
29 219
29 232
29 238
29 251
29 301
29 337
29 340
29 342
29 351
29 360
30 36
30 38
30 92
30 99
30 101
30 107
30 110
30 127
30 140
30 147
30 157
30 160
30 171
30 184
30 198
30 226
30 231
30 244
30 247
30 264
30 268
30 282
30 302
30 321
30 323
30 345
30 376
30 391
31 45
31 47
31 60
31 74
31 76
31 80
31 89
31 100
31 106
31 143
31 162
31 182
31 199
31 203
31 206
31 211
31 228
31 236
31 238
31 248
31 257
31 263
31 265
31 267
31 276
31 292
31 293
31 299
31 303
31 337
31 343
31 344
31 356
31 363
31 373
31 376
32 42
32 44
32 55
32 56
32 60
32 71
32 74
32 80
32 89
32 90
32 92
32 102
32 133
32 143
32 150
32 156
32 159
32 163
32 183
32 185
32 190
32 193
32 194
32 206
32 211
32 220
32 251
32 287
32 294
32 299
32 316
32 322
32 324
32 342
32 350
32 378
32 393
33 44
33 56
33 84
33 91
33 97
33 100
33 108
33 124
33 142
33 143
33 147
33 171
33 180
33 185
33 205
33 206
33 213
33 216
33 224
33 226
33 243
33 253
33 256
33 271
33 280
33 298
33 327
33 328
33 329
33 342
33 351
33 363
33 365
33 379
33 387
33 388
33 389
33 398
34 36
34 53
34 68
34 70
34 92
34 93
34 99
34 101
34 125
34 126
34 136
34 152
34 167
34 172
34 180
34 191
34 194
34 200
34 213
34 215
34 216
34 219
34 241
34 257
34 268
34 273
34 274
34 277
34 297
34 310
34 318
34 319
34 337
34 345
34 358
34 367
34 386
34 388
35 66
35 67
35 72
35 86
35 89
35 93
35 105
35 112
35 124
35 125
35 130
35 134
35 137
35 140
35 149
35 158
35 170
35 181
35 218
35 235
35 238
35 242
35 252
35 296
35 305
35 307
35 316
35 325
35 338
35 340
35 344
35 354
35 374
35 384
35 395
36 41
36 43
36 56
36 66
36 70
36 71
36 72
36 79
36 102
36 108
36 123
36 132
36 133
36 134
36 155
36 162
36 177
36 189
36 201
36 206
36 207
36 222
36 235
36 238
36 251
36 257
36 269
36 271
36 272
36 275
36 280
36 300
36 308
36 310
36 319
36 322
36 326
36 328
36 330
36 332
36 349
36 381
36 1093
37 44
37 46
37 76
37 130
37 136
37 162
37 167
37 180
37 197
37 222
37 237
37 248
37 251
37 252
37 261
37 268
37 274
37 277
37 281
37 288
37 306
37 331
37 342
37 387
37 388
37 397
38 41
38 42
38 46
38 48
38 50
38 57
38 63
38 66
38 96
38 100
38 122
38 127
38 129
38 132
38 136
38 142
38 157
38 166
38 170
38 182
38 193
38 203
38 220
38 234
38 236
38 241
38 268
38 269
38 281
38 306
38 349
38 352
38 353
38 357
38 366
39 58
39 62
39 63
39 66
39 71
39 77
39 83
39 89
39 93
39 104
39 108
39 109
39 119
39 122
39 123
39 132
39 140
39 147
39 162
39 174
39 184
39 193
39 248
39 287
39 289
39 304
39 308
39 309
39 313
39 324
39 339
39 340
39 345
39 364
39 366
39 367
39 377
39 381
40 52
40 55
40 65
40 66
40 68
40 70
40 131
40 171
40 172
40 179
40 200
40 228
40 238
40 243
40 251
40 259
40 274
40 277
40 289
40 314
40 318
40 324
40 341
40 351
40 367
40 372
40 387
40 392
40 393
40 397
41 48
41 62
41 67
41 69
41 86
41 91
41 93
41 104
41 107
41 111
41 113
41 117
41 121
41 153
41 155
41 157
41 162
41 166
41 170
41 175
41 180
41 195
41 213
41 229
41 264
41 283
41 292
41 304
41 307
41 309
41 316
41 317
41 318
41 323
41 331
41 358
41 367
41 379
41 381
41 385
41 387
41 389
41 393
41 1897
42 46
42 50
42 52
42 57
42 61
42 72
42 86
42 91
42 106
42 112
42 114
42 115
42 122
42 131
42 150
42 155
42 164
42 173
42 208
42 224
42 236
42 239
42 257
42 262
42 268
42 277
42 293
42 294
42 311
42 314
42 333
42 337
42 343
42 347
42 353
42 362
42 370
42 389
42 393
43 57
43 80
43 85
43 88
43 90
43 91
43 105
43 111
43 117
43 119
43 120
43 136
43 143
43 145
43 150
43 184
43 189
43 191
43 228
43 229
43 233
43 265
43 298
43 299
43 323
43 327
43 329
43 355
43 367
43 380
43 384
43 389
43 398
44 46
44 59
44 60
44 67
44 80
44 97
44 114
44 125
44 126
44 128
44 134
44 139
44 144
44 151
44 178
44 180
44 192
44 203
44 206
44 211
44 216
44 219
44 245
44 253
44 257
44 259
44 286
44 316
44 326
44 329
44 348
44 353
44 354
44 355
44 360
44 367
44 374
44 384
44 387
44 389
45 59
45 68
45 105
45 111
45 113
45 134
45 141
45 142
45 146
45 163
45 169
45 184
45 193
45 195
45 210
45 217
45 221
45 226
45 245
45 250
45 261
45 267
45 311
45 328
45 331
45 332
45 354
45 357
45 358
45 365
45 371
45 373
45 375
45 383
45 387
45 392
46 58
46 64
46 66
46 70
46 71
46 89
46 96
46 102
46 116
46 121
46 140
46 146
46 154
46 155
46 166
46 178
46 187
46 197
46 199
46 204
46 207
46 220
46 236
46 237
46 238
46 267
46 279
46 300
46 331
46 334
46 347
46 349
46 352
46 362
46 369
46 370
46 372
46 390
46 391
46 394
46 1585
47 55
47 59
47 61
47 62
47 71
47 81
47 85
47 88
47 95
47 96
47 101
47 136
47 137
47 152
47 162
47 173
47 176
47 186
47 189
47 201
47 203
47 209
47 221
47 257
47 261
47 271
47 287
47 295
47 299
47 305
47 309
47 317
47 325
47 327
47 331
47 349
47 351
47 356
47 383
47 384
47 390
47 394
48 61
48 76
48 80
48 84
48 93
48 94
48 106
48 116
48 132
48 133
48 134
48 142
48 144
48 149
48 153
48 156
48 158
48 170
48 179
48 182
48 190
48 194
48 214
48 251
48 284
48 288
48 300
48 301
48 304
48 305
48 306
48 312
48 337
48 343
48 357
48 361
48 370
48 371
48 399
49 64
49 78
49 83
49 123
49 127
49 171
49 183
49 222
49 262
49 275
49 279
49 294
49 301
49 308
49 310
49 313
49 342
49 343
49 345
49 352
49 362
50 57
50 66
50 67
50 73
50 74
50 88
50 90
50 100
50 102
50 107
50 121
50 168
50 177
50 188
50 191
50 244
50 268
50 275
50 282
50 299
50 308
50 316
50 321
50 330
50 333
50 339
50 341
50 350
50 356
50 368
50 384
50 385
50 386
50 395
50 398
51 69
51 79
51 99
51 139
51 154
51 162
51 182
51 193
51 213
51 215
51 224
51 225
51 233
51 238
51 242
51 248
51 251
51 256
51 268
51 284
51 287
51 303
51 310
51 333
51 358
51 368
51 373
51 381
51 385
51 396
52 56
52 74
52 83
52 85
52 86
52 91
52 104
52 129
52 135
52 136
52 139
52 142
52 146
52 154
52 159
52 169
52 170
52 171
52 177
52 190
52 198
52 208
52 211
52 239
52 256
52 261
52 271
52 279
52 282
52 284
52 304
52 322
52 342
52 351
52 362
52 364
52 365
52 371
52 372
52 385
52 388
52 389
52 390
52 392
52 601
53 59
53 62
53 70
53 74
53 90
53 100
53 111
53 119
53 145
53 152
53 163
53 168
53 175
53 196
53 208
53 216
53 234
53 237
53 238
53 239
53 270
53 315
53 333
53 347
53 351
53 358
53 372
53 373
53 377
53 382
53 398
54 56
54 66
54 68
54 76
54 86
54 101
54 115
54 132
54 135
54 139
54 144
54 147
54 162
54 164
54 165
54 209
54 212
54 216
54 217
54 233
54 266
54 275
54 276
54 285
54 286
54 299
54 309
54 310
54 328
54 344
54 350
54 354
54 358
54 360
54 367
54 372
54 393
54 1469
55 66
55 69
55 74
55 95
55 107
55 112
55 135
55 157
55 169
55 173
55 195
55 209
55 213
55 226
55 228
55 245
55 250
55 251
55 276
55 303
55 316
55 325
55 330
55 336
55 347
55 364
55 368
55 373
55 380
55 395
56 58
56 66
56 78
56 94
56 97
56 103
56 110
56 122
56 143
56 166
56 188
56 192
56 198
56 209
56 219
56 225
56 227
56 230
56 234
56 247
56 303
56 305
56 317
56 324
56 341
56 348
56 359
56 362
56 366
56 368
56 371
56 379
56 381
56 385
56 391
57 59
57 65
57 70
57 73
57 76
57 79
57 92
57 99
57 100
57 124
57 129
57 137
57 139
57 159
57 172
57 192
57 233
57 234
57 235
57 256
57 260
57 288
57 299
57 301
57 307
57 331
57 337
57 338
57 342
57 355
57 363
57 368
57 378
57 379
57 384
58 67
58 78
58 79
58 87
58 107
58 113
58 121
58 129
58 144
58 149
58 151
58 153
58 169
58 171
58 180
58 191
58 201
58 217
58 218
58 222
58 230
58 246
58 254
58 262
58 267
58 269
58 273
58 278
58 285
58 286
58 295
58 324
58 383
59 65
59 67
59 76
59 98
59 125
59 128
59 139
59 142
59 147
59 149
59 150
59 162
59 168
59 169
59 183
59 197
59 211
59 216
59 223
59 226
59 230
59 255
59 261
59 268
59 298
59 305
59 310
59 315
59 334
59 337
59 340
59 371
59 374
59 376
60 69
60 94
60 98
60 146
60 153
60 155
60 164
60 174
60 183
60 187
60 199
60 200
60 203
60 210
60 217
60 238
60 243
60 263
60 269
60 280
60 287
60 294
60 301
60 304
60 307
60 309
60 311
60 312
60 313
60 336
60 337
60 338
60 339
60 355
60 356
60 367
60 376
60 382
60 383
60 394
61 83
61 87
61 107
61 123
61 170
61 193
61 206
61 210
61 212
61 216
61 220
61 225
61 232
61 235
61 248
61 259
61 266
61 273
61 274
61 276
61 277
61 284
61 295
61 298
61 300
61 310
61 348
61 366
61 382
62 65
62 77
62 79
62 85
62 89
62 99
62 107
62 108
62 110
62 147
62 150
62 174
62 191
62 201
62 231
62 238
62 269
62 271
62 274
62 297
62 303
62 314
62 316
62 336
62 355
62 363
62 373
62 375
62 385
62 390
62 391
62 392
63 67
63 75
63 88
63 96
63 109
63 112
63 116
63 118
63 126
63 130
63 132
63 150
63 154
63 166
63 172
63 180
63 193
63 207
63 213
63 216
63 227
63 235
63 242
63 256
63 264
63 270
63 306
63 317
63 334
63 347
63 350
63 353
63 364
63 373
63 379
63 382
63 391
63 394
63 399
64 71
64 73
64 80
64 100
64 106
64 111
64 115
64 124
64 126
64 133
64 136
64 149
64 150
64 154
64 167
64 175
64 176
64 191
64 194
64 211
64 229
64 231
64 250
64 259
64 260
64 261
64 265
64 268
64 274
64 278
64 283
64 287
64 289
64 292
64 294
64 295
64 309
64 327
64 329
64 330
64 332
64 342
64 373
64 376
64 385
64 388
64 399
65 71
65 74
65 95
65 101
65 120
65 125
65 148
65 179
65 185
65 186
65 187
65 212
65 215
65 221
65 224
65 233
65 244
65 258
65 281
65 289
65 302
65 303
65 309
65 318
65 330
65 331
65 336
65 359
65 367
65 381
65 383
65 387
66 72
66 77
66 87
66 95
66 96
66 103
66 107
66 141
66 146
66 147
66 148
66 164
66 206
66 207
66 220
66 224
66 229
66 245
66 250
66 272
66 281
66 287
66 302
66 314
66 328
66 329
66 345
66 353
66 364
66 380
66 391
67 73
67 74
67 78
67 89
67 103
67 108
67 123
67 129
67 139
67 157
67 161
67 165
67 168
67 172
67 174
67 189
67 237
67 243
67 246
67 251
67 259
67 271
67 272
67 288
67 295
67 341
67 345
67 347
67 353
67 387
68 69
68 75
68 90
68 104
68 106
68 108
68 109
68 117
68 128
68 151
68 153
68 171
68 199
68 233
68 238
68 255
68 259
68 263
68 269
68 270
68 279
68 305
68 307
68 340
68 342
68 344
68 350
68 352
68 358
68 368
68 369
68 370
68 376
68 397
69 71
69 95
69 98
69 112
69 118
69 123
69 127
69 136
69 160
69 192
69 203
69 208
69 218
69 220
69 222
69 226
69 227
69 237
69 238
69 250
69 268
69 270
69 286
69 292
69 309
69 326
69 349
69 370
69 378
69 391
69 394
69 396
69 399
70 72
70 77
70 83
70 88
70 101
70 107
70 113
70 116
70 117
70 122
70 124
70 150
70 171
70 179
70 194
70 203
70 205
70 208
70 222
70 225
70 228
70 245
70 250
70 271
70 282
70 297
70 324
70 332
70 343
70 352
70 356
70 358
70 366
70 367
70 377
71 78
71 80
71 110
71 112
71 124
71 128
71 139
71 151
71 164
71 188
71 232
71 260
71 287
71 289
71 294
71 296
71 310
71 317
71 328
71 333
71 340
71 355
71 361
71 368
72 80
72 84
72 86
72 88
72 95
72 96
72 101
72 103
72 105
72 109
72 131
72 152
72 160
72 166
72 174
72 183
72 193
72 206
72 216
72 221
72 224
72 228
72 230
72 245
72 248
72 254
72 268
72 270
72 282
72 286
72 321
72 334
72 340
72 362
72 379
72 384
72 386
72 398
73 112
73 115
73 120
73 136
73 160
73 186
73 191
73 193
73 195
73 201
73 204
73 213
73 234
73 242
73 243
73 245
73 248
73 253
73 266
73 272
73 293
73 294
73 300
73 302
73 310
73 318
73 319
73 320
73 326
73 351
73 355
73 385
74 82
74 91
74 96
74 99
74 106
74 107
74 126
74 155
74 159
74 161
74 211
74 220
74 221
74 244
74 246
74 251
74 258
74 260
74 276
74 287
74 298
74 303
74 307
74 316
74 320
74 370
74 372
74 380
74 385
74 386
75 88
75 89
75 111
75 126
75 142
75 144
75 152
75 176
75 183
75 185
75 187
75 189
75 191
75 204
75 226
75 246
75 250
75 256
75 267
75 276
75 279
75 298
75 303
75 333
75 337
75 354
75 356
75 367
75 369
75 385
75 389
75 393
75 397
76 77
76 88
76 99
76 109
76 135
76 147
76 151
76 153
76 155
76 178
76 202
76 204
76 208
76 233
76 241
76 250
76 266
76 272
76 279
76 308
76 323
76 346
76 354
76 393
76 395
77 121
77 129
77 141
77 145
77 147
77 151
77 154
77 162
77 172
77 181
77 208
77 210
77 218
77 231
77 233
77 241
77 244
77 247
77 253
77 254
77 256
77 265
77 277
77 285
77 292
77 293
77 319
77 321
77 349
77 358
77 363
77 372
77 691
78 80
78 115
78 116
78 121
78 122
78 129
78 148
78 154
78 171
78 173
78 204
78 214
78 215
78 218
78 243
78 252
78 264
78 269
78 279
78 286
78 289
78 293
78 300
78 302
78 306
78 326
78 350
78 384
78 389
79 82
79 86
79 97
79 113
79 114
79 121
79 123
79 131
79 140
79 153
79 159
79 165
79 183
79 203
79 219
79 223
79 242
79 248
79 270
79 275
79 299
79 315
79 353
79 360
79 371
79 372
79 375
79 382
79 394
79 399
80 88
80 99
80 102
80 115
80 123
80 134
80 137
80 149
80 159
80 167
80 172
80 179
80 182
80 186
80 201
80 202
80 206
80 209
80 211
80 215
80 220
80 227
80 231
80 232
80 242
80 244
80 250
80 265
80 267
80 271
80 285
80 286
80 298
80 310
80 324
80 331
80 365
80 379
80 387
80 390
81 87
81 91
81 115
81 121
81 134
81 135
81 144
81 145
81 156
81 163
81 184
81 185
81 206
81 207
81 213
81 230
81 244
81 263
81 266
81 270
81 273
81 276
81 287
81 305
81 316
81 349
81 374
81 376
81 380
81 381
82 111
82 118
82 153
82 162
82 166
82 172
82 176
82 188
82 215
82 221
82 244
82 248
82 272
82 273
82 278
82 287
82 289
82 290
82 302
82 307
82 311
82 313
82 315
82 319
82 321
82 327
82 328
82 336
82 348
82 350
82 352
82 353
82 383
82 388
82 392
82 394
82 395
82 396
82 399
82 1763
83 91
83 105
83 126
83 129
83 168
83 179
83 180
83 193
83 201
83 203
83 208
83 219
83 237
83 262
83 272
83 294
83 296
83 307
83 314
83 320
83 327
83 335
83 344
83 346
83 369
83 384
84 96
84 130
84 134
84 142
84 147
84 148
84 152
84 166
84 177
84 186
84 195
84 199
84 203
84 218
84 239
84 252
84 263
84 279
84 287
84 359
84 371
84 374
84 376
84 381
84 388
84 391
84 395
84 396
85 88
85 101
85 125
85 147
85 159
85 169
85 174
85 176
85 177
85 185
85 190
85 191
85 211
85 218
85 220
85 236
85 248
85 259
85 260
85 265
85 280
85 303
85 307
85 312
85 340
85 367
85 376
85 385
85 387
85 475
86 97
86 115
86 128
86 163
86 177
86 179
86 184
86 239
86 247
86 263
86 294
86 296
86 298
86 307
86 316
86 317
86 321
86 325
86 327
86 358
86 365
86 379
86 382
86 383
86 388
86 392
86 397
87 108
87 113
87 123
87 124
87 137
87 148
87 165
87 188
87 190
87 236
87 243
87 246
87 249
87 253
87 254
87 263
87 264
87 265
87 266
87 275
87 277
87 293
87 298
87 305
87 311
87 337
87 340
87 354
87 371
87 374
87 376
87 384
87 385
87 392
87 397
88 102
88 116
88 121
88 127
88 132
88 134
88 135
88 157
88 197
88 201
88 233
88 235
88 239
88 242
88 266
88 281
88 299
88 304
88 313
88 318
88 378
88 389
88 390
88 396
89 96
89 103
89 119
89 122
89 123
89 138
89 160
89 161
89 163
89 186
89 190
89 202
89 205
89 219
89 227
89 230
89 232
89 233
89 242
89 251
89 274
89 278
89 280
89 282
89 286
89 290
89 324
89 328
89 337
89 344
89 346
89 361
89 376
89 399
90 93
90 102
90 106
90 125
90 161
90 169
90 173
90 185
90 186
90 189
90 219
90 221
90 225
90 232
90 250
90 255
90 264
90 281
90 310
90 321
90 351
90 353
90 354
90 356
90 358
90 372
90 388
91 97
91 108
91 112
91 123
91 126
91 128
91 133
91 135
91 146
91 161
91 163
91 165
91 176
91 192
91 201
91 212
91 225
91 231
91 254
91 263
91 271
91 274
91 281
91 289
91 322
91 326
91 366
91 369
91 383
91 388
91 396
91 1273
92 99
92 104
92 105
92 110
92 112
92 118
92 140
92 142
92 158
92 162
92 185
92 218
92 219
92 224
92 243
92 245
92 247
92 265
92 267
92 272
92 281
92 285
92 289
92 290
92 308
92 313
92 322
92 330
92 337
92 343
92 357
92 366
92 378
92 387
93 95
93 96
93 137
93 157
93 174
93 178
93 193
93 231
93 235
93 258
93 263
93 273
93 284
93 288
93 302
93 316
93 319
93 332
93 338
93 343
93 370
94 110
94 119
94 130
94 133
94 141
94 145
94 149
94 177
94 184
94 195
94 198
94 212
94 220
94 225
94 227
94 231
94 234
94 237
94 256
94 267
94 280
94 289
94 290
94 307
94 309
94 321
94 333
94 345
94 348
94 368
94 370
94 375
95 104
95 136
95 140
95 162
95 177
95 181
95 187
95 191
95 196
95 200
95 201
95 206
95 211
95 231
95 245
95 288
95 300
95 303
95 356
95 381
95 397
96 101
96 108
96 122
96 130
96 140
96 149
96 154
96 162
96 168
96 180
96 200
96 203
96 209
96 217
96 222
96 248
96 258
96 260
96 277
96 279
96 284
96 285
96 292
96 311
96 318
96 336
96 364
96 373
96 374
96 380
96 390
96 392
97 119
97 152
97 171
97 174
97 178
97 181
97 197
97 199
97 209
97 221
97 223
97 241
97 245
97 253
97 264
97 290
97 300
97 304
97 314
97 321
97 322
97 331
97 347
97 360
97 362
97 371
97 374
97 384
98 112
98 114
98 140
98 156
98 171
98 178
98 194
98 206
98 214
98 235
98 243
98 251
98 274
98 282
98 283
98 286
98 291
98 321
98 335
98 343
98 345
98 362
98 365
98 373
98 395
98 396
99 103
99 115
99 133
99 143
99 157
99 161
99 173
99 188
99 190
99 191
99 196
99 206
99 214
99 219
99 228
99 242
99 260
99 277
99 280
99 289
99 293
99 295
99 300
99 304
99 323
99 326
99 328
99 329
99 348
99 349
99 354
99 359
99 370
99 373
99 382
99 391
99 398
100 124
100 143
100 153
100 156
100 176
100 219
100 222
100 223
100 238
100 241
100 246
100 247
100 271
100 274
100 290
100 294
100 296
100 299
100 302
100 310
100 321
100 328
100 330
100 342
100 375
100 376
100 382
100 399
101 106
101 110
101 115
101 128
101 155
101 160
101 168
101 170
101 176
101 183
101 185
101 202
101 210
101 211
101 212
101 222
101 226
101 241
101 247
101 282
101 283
101 284
101 287
101 296
101 302
101 312
101 315
101 319
101 324
101 335
101 336
101 339
101 340
101 346
101 354
101 356
101 357
101 362
101 376
101 385
101 391
102 118
102 119
102 123
102 135
102 138
102 145
102 157
102 185
102 218
102 221
102 234
102 256
102 258
102 259
102 273
102 276
102 279
102 285
102 302
102 314
102 317
102 324
102 334
102 336
102 347
102 353
102 354
102 648
103 118
103 124
103 125
103 133
103 147
103 150
103 151
103 152
103 160
103 168
103 184
103 193
103 208
103 211
103 214
103 223
103 228
103 239
103 241
103 271
103 273
103 274
103 283
103 296
103 300
103 301
103 302
103 306
103 319
103 328
103 365
103 383
103 385
103 388
103 474
104 107
104 108
104 118
104 119
104 121
104 146
104 151
104 153
104 156
104 168
104 180
104 244
104 260
104 272
104 276
104 296
104 300
104 301
104 321
104 328
104 346
104 376
104 383
104 394
104 395
105 108
105 110
105 128
105 129
105 131
105 145
105 157
105 162
105 186
105 187
105 193
105 199
105 203
105 215
105 223
105 230
105 248
105 257
105 259
105 261
105 271
105 273
105 278
105 296
105 302
105 303
105 311
105 314
105 330
105 341
105 360
105 385
105 388
106 117
106 125
106 128
106 130
106 147
106 153
106 166
106 171
106 196
106 200
106 222
106 228
106 258
106 259
106 260
106 264
106 266
106 276
106 288
106 292
106 300
106 304
106 309
106 312
106 318
106 326
106 328
106 391
107 111
107 112
107 115
107 128
107 138
107 143
107 147
107 149
107 153
107 159
107 201
107 203
107 211
107 213
107 217
107 220
107 223
107 241
107 244
107 246
107 263
107 271
107 298
107 303
107 306
107 307
107 338
107 347
107 352
107 356
107 360
107 385
107 388
108 114
108 126
108 136
108 141
108 157
108 162
108 176
108 183
108 187
108 188
108 197
108 200
108 211
108 212
108 244
108 259
108 260
108 297
108 305
108 318
108 321
108 323
108 324
108 337
108 341
108 344
108 350
108 353
108 354
108 387
108 394
109 129
109 131
109 134
109 135
109 139
109 140
109 144
109 146
109 174
109 191
109 194
109 195
109 221
109 222
109 243
109 245
109 246
109 258
109 262
109 267
109 269
109 273
109 274
109 288
109 292
109 296
109 336
109 346
109 355
109 356
109 371
109 378
109 387
109 392
110 183
110 220
110 221
110 224
110 234
110 241
110 264
110 274
110 275
110 276
110 285
110 287
110 293
110 318
110 320
110 327
110 333
110 342
110 366
110 367
110 378
110 383
110 384
110 392
110 397
111 114
111 120
111 135
111 137
111 155
111 161
111 163
111 167
111 178
111 186
111 212
111 216
111 232
111 246
111 259
111 277
111 282
111 297
111 316
111 319
111 321
111 327
111 330
111 334
111 335
111 336
111 344
111 355
111 356
111 377
111 382
112 117
112 146
112 152
112 156
112 159
112 163
112 165
112 167
112 183
112 194
112 204
112 212
112 214
112 218
112 221
112 226
112 230
112 231
112 232
112 237
112 249
112 268
112 273
112 276
112 277
112 280
112 289
112 300
112 321
112 323
112 324
112 334
112 349
112 367
112 372
112 374
112 376
112 378
112 381
112 396
112 399
113 124
113 139
113 155
113 174
113 176
113 206
113 215
113 224
113 234
113 242
113 248
113 249
113 251
113 265
113 269
113 287
113 293
113 297
113 300
113 303
113 304
113 314
113 316
113 336
113 344
113 348
113 371
113 376
113 378
113 379
114 135
114 156
114 157
114 160
114 162
114 166
114 169
114 175
114 176
114 194
114 198
114 202
114 216
114 244
114 246
114 260
114 267
114 271
114 274
114 275
114 282
114 294
114 302
114 310
114 313
114 321
114 325
114 332
114 341
114 350
114 352
114 367
114 385
114 399
115 122
115 135
115 138
115 154
115 191
115 192
115 221
115 233
115 234
115 237
115 239
115 266
115 291
115 297
115 319
115 332
115 333
115 358
115 359
115 391
115 399
116 123
116 145
116 166
116 174
116 177
116 182
116 213
116 230
116 237
116 248
116 252
116 253
116 258
116 260
116 267
116 272
116 274
116 275
116 308
116 315
116 319
116 324
116 336
116 343
116 367
116 399
117 149
117 156
117 163
117 166
117 207
117 210
117 217
117 226
117 234
117 237
117 238
117 239
117 246
117 250
117 270
117 287
117 288
117 305
117 309
117 310
117 312
117 332
117 336
117 350
117 356
118 128
118 134
118 142
118 165
118 170
118 178
118 188
118 204
118 206
118 212
118 214
118 217
118 220
118 228
118 241
118 242
118 279
118 283
118 289
118 291
118 301
118 306
118 321
118 324
118 329
118 334
118 347
118 388
118 391
118 397
118 398
119 161
119 167
119 170
119 173
119 190
119 191
119 233
119 237
119 250
119 251
119 285
119 295
119 296
119 299
119 307
119 323
119 339
119 354
119 367
119 378
119 379
119 380
119 392
120 125
120 166
120 174
120 186
120 188
120 199
120 202
120 212
120 219
120 248
120 252
120 253
120 258
120 278
120 279
120 283
120 289
120 293
120 304
120 306
120 326
120 334
120 366
120 370
120 371
120 375
120 380
120 387
120 391
120 749
121 132
121 154
121 163
121 175
121 177
121 185
121 188
121 196
121 215
121 219
121 224
121 230
121 235
121 243
121 265
121 274
121 280
121 287
121 293
121 301
121 318
121 323
121 339
121 357
121 364
121 369
121 371
122 131
122 136
122 148
122 164
122 168
122 169
122 176
122 180
122 184
122 211
122 219
122 223
122 257
122 276
122 279
122 285
122 288
122 297
122 301
122 311
122 318
122 325
122 334
122 335
122 341
122 347
122 351
122 367
122 369
122 377
122 383
122 393
122 1762
123 130
123 138
123 140
123 146
123 168
123 175
123 189
123 190
123 213
123 214
123 220
123 222
123 223
123 224
123 236
123 238
123 240
123 262
123 265
123 266
123 270
123 279
123 289
123 291
123 318
123 332
123 333
123 337
123 341
123 352
123 357
123 366
123 368
123 370
123 380
124 126
124 136
124 137
124 153
124 157
124 158
124 169
124 183
124 185
124 189
124 196
124 209
124 213
124 223
124 226
124 244
124 245
124 249
124 252
124 265
124 278
124 301
124 306
124 311
124 321
124 333
124 336
124 352
124 353
124 357
124 373
124 390
125 128
125 132
125 139
125 147
125 153
125 155
125 163
125 164
125 170
125 177
125 182
125 193
125 198
125 220
125 222
125 225
125 230
125 236
125 252
125 256
125 279
125 316
125 329
125 335
125 337
125 353
125 359
125 370
125 372
126 127
126 131
126 143
126 147
126 148
126 160
126 176
126 193
126 207
126 209
126 227
126 241
126 254
126 256
126 266
126 271
126 280
126 289
126 296
126 303
126 307
126 309
126 311
126 336
126 352
126 363
126 365
126 387
127 133
127 141
127 146
127 157
127 163
127 180
127 185
127 200
127 206
127 221
127 240
127 242
127 244
127 263
127 264
127 265
127 282
127 289
127 292
127 302
127 305
127 306
127 332
127 344
127 356
127 363
127 364
127 381
127 393
128 135
128 138
128 140
128 148
128 150
128 161
128 170
128 193
128 205
128 214
128 240
128 248
128 249
128 256
128 266
128 273
128 285
128 306
128 317
128 351
128 353
128 366
128 384
128 1412
129 137
129 141
129 154
129 161
129 173
129 182
129 183
129 197
129 224
129 244
129 246
129 249
129 256
129 271
129 273
129 302
129 325
129 352
129 357
129 377
129 386
129 387
129 389
129 392
129 396
130 139
130 148
130 156
130 175
130 177
130 181
130 196
130 200
130 205
130 212
130 219
130 223
130 226
130 232
130 237
130 256
130 258
130 270
130 272
130 275
130 302
130 309
130 324
130 327
130 371
130 376
130 377
131 141
131 151
131 152
131 165
131 193
131 194
131 202
131 218
131 219
131 236
131 241
131 273
131 274
131 288
131 292
131 294
131 299
131 304
131 306
131 313
131 324
131 335
131 361
131 369
131 381
131 382
131 393
131 399
132 134
132 158
132 159
132 160
132 187
132 193
132 201
132 206
132 234
132 236
132 242
132 255
132 280
132 282
132 283
132 309
132 313
132 321
132 334
132 353
132 361
132 366
132 372
132 380
132 381
132 384
132 390
133 137
133 140
133 156
133 160
133 173
133 189
133 196
133 204
133 217
133 235
133 237
133 244
133 269
133 284
133 307
133 321
133 332
133 333
133 334
133 340
133 342
133 360
133 367
133 368
133 391
134 139
134 149
134 163
134 165
134 166
134 187
134 188
134 190
134 198
134 203
134 211
134 213
134 215
134 222
134 244
134 247
134 248
134 252
134 273
134 280
134 285
134 294
134 299
134 332
134 335
134 360
134 370
134 371
134 372
134 379
135 139
135 152
135 153
135 160
135 171
135 174
135 181
135 183
135 185
135 199
135 209
135 233
135 241
135 248
135 256
135 257
135 262
135 267
135 318
135 323
135 329
135 345
135 351
135 356
135 373
135 379
135 390
135 396
135 589
136 140
136 148
136 154
136 158
136 159
136 164
136 167
136 174
136 180
136 247
136 250
136 279
136 295
136 297
136 303
136 306
136 311
136 318
136 324
136 353
136 362
136 363
136 371
136 382
136 394
137 145
137 148
137 156
137 168
137 190
137 217
137 228
137 236
137 256
137 262
137 263
137 267
137 270
137 277
137 278
137 281
137 284
137 292
137 309
137 311
137 333
137 337
137 342
137 361
137 363
137 367
137 392
138 148
138 149
138 153
138 160
138 170
138 172
138 173
138 186
138 204
138 206
138 209
138 222
138 226
138 257
138 264
138 266
138 268
138 272
138 286
138 312
138 319
138 324
138 345
138 352
138 389
139 144
139 156
139 163
139 164
139 169
139 203
139 209
139 223
139 226
139 230
139 231
139 274
139 279
139 281
139 283
139 299
139 310
139 320
139 327
139 348
139 351
139 386
139 394
140 157
140 164
140 191
140 195
140 196
140 206
140 208
140 218
140 221
140 227
140 242
140 243
140 251
140 253
140 267
140 272
140 275
140 276
140 282
140 303
140 307
140 313
140 343
140 376
141 145
141 162
141 174
141 179
141 183
141 187
141 204
141 205
141 208
141 221
141 229
141 231
141 232
141 234
141 252
141 256
141 304
141 326
141 327
141 328
141 331
141 356
141 358
141 362
141 372
141 386
141 393
142 149
142 177
142 184
142 205
142 211
142 229
142 236
142 243
142 269
142 289
142 298
142 300
142 339
142 340
142 366
142 369
142 394
142 399
143 145
143 159
143 182
143 185
143 186
143 194
143 213
143 257
143 278
143 281
143 293
143 304
143 358
143 361
143 376
143 384
143 385
143 387
143 399
143 1325
144 158
144 179
144 200
144 201
144 204
144 213
144 242
144 250
144 251
144 268
144 283
144 285
144 287
144 289
144 307
144 308
144 310
144 326
144 337
144 339
144 341
144 344
144 346
144 347
144 355
144 361
144 365
144 369
144 374
144 378
144 379
144 389
144 395
144 397
144 707
144 1904
145 166
145 171
145 201
145 205
145 209
145 220
145 245
145 257
145 263
145 264
145 279
145 282
145 283
145 298
145 299
145 317
145 328
145 333
145 341
145 354
145 379
145 393
146 155
146 173
146 175
146 194
146 222
146 246
146 276
146 289
146 291
146 300
146 305
146 310
146 344
146 368
146 374
146 380
147 151
147 152
147 164
147 175
147 180
147 202
147 212
147 220
147 227
147 228
147 238
147 239
147 248
147 255
147 256
147 268
147 276
147 286
147 306
147 309
147 312
147 318
147 335
147 348
147 363
147 385
147 391
148 153
148 160
148 165
148 180
148 183
148 195
148 196
148 220
148 233
148 239
148 244
148 251
148 255
148 292
148 308
148 313
148 323
148 330
148 339
148 346
148 353
148 354
148 358
148 360
148 366
148 385
148 388
148 391
149 166
149 167
149 175
149 201
149 205
149 240
149 251
149 253
149 255
149 278
149 288
149 295
149 315
149 323
149 334
149 339
149 342
149 346
149 350
149 352
149 372
149 381
150 156
150 157
150 159
150 182
150 184
150 185
150 190
150 191
150 194
150 195
150 207
150 219
150 230
150 244
150 255
150 256
150 258
150 259
150 263
150 286
150 361
150 375
150 376
150 388
150 397
150 1421
151 155
151 158
151 160
151 169
151 170
151 172
151 187
151 189
151 195
151 200
151 208
151 214
151 216
151 238
151 247
151 253
151 256
151 266
151 268
151 273
151 313
151 328
151 332
151 337
151 340
151 344
151 348
151 354
151 357
151 375
151 390
151 399
152 153
152 154
152 155
152 175
152 177
152 179
152 204
152 211
152 219
152 229
152 236
152 246
152 260
152 271
152 281
152 293
152 296
152 313
152 321
152 351
152 359
152 365
152 377
152 1738
153 155
153 178
153 183
153 184
153 187
153 190
153 195
153 197
153 199
153 201
153 223
153 233
153 235
153 236
153 239
153 242
153 285
153 289
153 295
153 298
153 328
153 330
153 331
153 335
153 345
153 368
153 372
153 388
153 397
154 174
154 181
154 185
154 193
154 208
154 215
154 219
154 261
154 270
154 273
154 275
154 299
154 320
154 321
154 322
154 331
154 344
154 352
154 361
154 363
154 372
154 377
154 1417
155 169
155 186
155 195
155 201
155 203
155 225
155 226
155 236
155 243
155 277
155 284
155 328
155 332
155 340
155 350
155 366
155 368
155 373
155 379
155 395
156 171
156 192
156 195
156 197
156 226
156 259
156 261
156 283
156 286
156 312
156 315
156 317
156 341
156 343
156 344
156 351
156 375
156 391
156 398
157 160
157 165
157 188
157 196
157 217
157 224
157 225
157 273
157 274
157 275
157 276
157 279
157 280
157 298
157 306
157 321
157 333
157 334
157 346
157 353
157 358
157 361
157 394
158 159
158 166
158 169
158 194
158 209
158 234
158 263
158 269
158 272
158 275
158 276
158 279
158 301
158 328
158 336
158 340
158 367
158 387
158 391
158 399
159 166
159 177
159 181
159 183
159 200
159 209
159 211
159 215
159 224
159 225
159 227
159 232
159 258
159 281
159 288
159 290
159 294
159 301
159 304
159 312
159 318
159 357
159 391
160 161
160 168
160 170
160 175
160 179
160 180
160 196
160 205
160 214
160 216
160 235
160 244
160 246
160 258
160 274
160 334
160 358
160 363
160 365
160 369
160 388
160 393
161 171
161 193
161 194
161 199
161 208
161 212
161 261
161 272
161 276
161 278
161 296
161 306
161 310
161 324
161 335
161 339
161 349
161 353
161 371
161 374
161 375
161 376
161 377
161 1437
162 182
162 199
162 203
162 221
162 222
162 242
162 260
162 261
162 265
162 266
162 270
162 273
162 292
162 299
162 304
162 305
162 314
162 321
162 329
162 334
162 339
162 341
162 361
162 370
162 373
162 386
162 387
162 394
162 395
162 397
162 399
163 179
163 185
163 198
163 200
163 207
163 218
163 224
163 247
163 266
163 278
163 279
163 283
163 296
163 297
163 302
163 304
163 328
163 336
163 337
163 340
163 342
163 358
163 361
163 365
163 369
163 397
164 172
164 215
164 223
164 224
164 230
164 291
164 318
164 324
164 332
164 346
164 353
164 370
164 376
164 383
164 390
164 397
165 167
165 187
165 196
165 202
165 218
165 234
165 237
165 257
165 258
165 283
165 294
165 297
165 309
165 318
165 333
165 334
165 337
165 341
165 347
165 363
165 373
165 374
165 376
165 386
165 392
166 178
166 184
166 192
166 196
166 218
166 223
166 225
166 235
166 246
166 247
166 257
166 264
166 278
166 282
166 283
166 294
166 295
166 298
166 314
166 316
166 342
166 350
166 352
166 373
166 397
167 168
167 197
167 229
167 262
167 265
167 280
167 285
167 295
167 301
167 306
167 318
167 321
167 326
167 329
167 333
167 341
167 353
167 354
167 369
167 374
167 382
167 397
168 190
168 192
168 216
168 222
168 223
168 229
168 234
168 246
168 253
168 256
168 263
168 272
168 276
168 291
168 294
168 308
168 309
168 320
168 333
168 334
168 338
168 348
168 359
168 360
168 377
168 398
169 172
169 175
169 190
169 193
169 195
169 200
169 205
169 219
169 228
169 233
169 243
169 256
169 261
169 279
169 291
169 304
169 314
169 342
169 343
169 364
169 368
170 172
170 178
170 191
170 201
170 214
170 215
170 218
170 229
170 238
170 243
170 264
170 286
170 299
170 310
170 347
170 352
170 366
170 375
170 386
170 388
171 182
171 207
171 209
171 237
171 243
171 244
171 252
171 253
171 278
171 285
171 312
171 313
171 332
171 336
171 348
171 350
171 354
171 372
171 377
172 179
172 209
172 222
172 225
172 232
172 241
172 248
172 257
172 271
172 280
172 284
172 291
172 300
172 301
172 302
172 342
172 347
172 360
172 361
172 375
172 386
172 696
173 191
173 214
173 215
173 226
173 243
173 248
173 250
173 255
173 265
173 271
173 291
173 294
173 298
173 299
173 300
173 306
173 310
173 316
173 317
173 322
173 329
173 336
173 348
173 349
173 360
173 380
173 382
173 383
173 386
174 183
174 184
174 199
174 208
174 220
174 223
174 226
174 252
174 253
174 259
174 265
174 277
174 289
174 293
174 303
174 313
174 324
174 333
174 334
174 347
174 353
174 355
174 361
174 368
174 374
174 381
174 388
174 389
175 176
175 188
175 189
175 190
175 196
175 222
175 223
175 243
175 247
175 275
175 276
175 286
175 300
175 313
175 317
175 325
175 347
175 354
175 356
175 364
175 388
176 192
176 193
176 194
176 246
176 249
176 256
176 280
176 296
176 297
176 316
176 317
176 321
176 324
176 334
176 342
176 351
176 355
176 370
176 373
176 379
176 380
176 386
176 393
177 183
177 192
177 198
177 217
177 220
177 227
177 232
177 251
177 255
177 265
177 271
177 272
177 309
177 312
177 314
177 315
177 321
177 367
177 372
177 381
178 183
178 191
178 198
178 225
178 230
178 237
178 248
178 263
178 266
178 298
178 306
178 308
178 334
178 335
178 338
178 340
178 343
178 345
178 359
178 370
178 390
178 392
178 394
179 182
179 183
179 187
179 189
179 191
179 194
179 209
179 223
179 228
179 237
179 242
179 247
179 250
179 253
179 255
179 256
179 259
179 264
179 271
179 274
179 289
179 331
179 338
179 349
179 355
179 356
179 363
180 183
180 194
180 199
180 223
180 226
180 236
180 242
180 272
180 275
180 282
180 288
180 297
180 299
180 311
180 320
180 354
180 361
180 373
180 382
181 199
181 206
181 208
181 226
181 227
181 250
181 256
181 257
181 260
181 272
181 287
181 305
181 314
181 331
181 337
181 343
181 350
181 351
181 363
181 364
181 367
181 383
181 389
181 390
181 399
182 190
182 204
182 205
182 215
182 216
182 217
182 227
182 238
182 244
182 256
182 286
182 287
182 288
182 299
182 328
182 330
182 344
182 346
182 366
183 187
183 213
183 222
183 229
183 241
183 250
183 289
183 305
183 310
183 320
183 329
183 342
183 354
183 359
183 361
183 380
183 394
183 399
184 186
184 227
184 236
184 240
184 247
184 249
184 258
184 264
184 278
184 280
184 296
184 320
184 324
184 332
184 333
184 350
184 379
184 388
185 194
185 199
185 224
185 235
185 241
185 243
185 256
185 257
185 259
185 286
185 297
185 303
185 308
185 309
185 312
185 318
185 343
185 353
185 365
185 376
185 377
185 384
185 385
185 390
186 195
186 208
186 229
186 238
186 255
186 258
186 276
186 277
186 284
186 305
186 310
186 327
186 328
186 341
186 357
186 358
186 362
186 366
186 389
187 194
187 220
187 230
187 231
187 240
187 246
187 255
187 266
187 279
187 288
187 290
187 293
187 307
187 308
187 313
187 341
187 373
187 382
187 385
187 387
187 395
187 397
188 197
188 204
188 211
188 237
188 239
188 253
188 257
188 271
188 277
188 307
188 320
188 333
188 342
188 358
188 359
188 367
188 373
188 374
188 378
188 383
188 388
188 1520
189 233
189 241
189 280
189 286
189 289
189 293
189 301
189 307
189 308
189 316
189 319
189 321
189 322
189 331
189 347
189 362
189 365
189 371
189 378
189 380
189 383
189 392
189 398
190 191
190 192
190 195
190 230
190 231
190 232
190 233
190 240
190 246
190 247
190 255
190 263
190 275
190 280
190 292
190 298
190 305
190 313
190 316
190 320
190 321
190 322
190 326
190 337
190 351
190 364
190 366
190 369
190 370
190 371
190 373
190 391
190 397
191 202
191 205
191 220
191 221
191 223
191 224
191 225
191 253
191 258
191 276
191 284
191 290
191 320
191 328
191 346
191 370
191 376
191 387
191 396
192 194
192 202
192 204
192 208
192 221
192 227
192 228
192 234
192 247
192 283
192 285
192 287
192 289
192 314
192 329
192 331
192 343
192 351
192 355
192 368
192 372
192 377
192 381
192 383
192 387
193 219
193 235
193 238
193 244
193 279
193 293
193 298
193 299
193 304
193 310
193 316
193 323
193 332
193 338
193 357
193 361
193 370
193 374
193 376
193 377
193 379
193 380
194 203
194 211
194 240
194 242
194 253
194 257
194 259
194 265
194 266
194 272
194 277
194 293
194 312
194 331
194 338
194 340
194 347
194 355
194 362
194 368
194 379
195 196
195 199
195 211
195 219
195 221
195 228
195 229
195 234
195 235
195 240
195 241
195 257
195 259
195 271
195 273
195 274
195 281
195 283
195 293
195 294
195 301
195 312
195 313
195 319
195 325
195 333
195 336
195 339
195 359
195 380
195 386
195 399
196 201
196 209
196 223
196 226
196 236
196 239
196 246
196 247
196 249
196 258
196 270
196 279
196 280
196 284
196 288
196 294
196 313
196 336
196 341
196 352
196 361
196 366
196 367
196 392
197 202
197 203
197 223
197 235
197 246
197 266
197 285
197 307
197 309
197 310
197 314
197 327
197 341
197 342
197 392
198 218
198 240
198 248
198 249
198 252
198 283
198 291
198 298
198 304
198 306
198 309
198 311
198 333
198 347
198 354
198 361
198 386
198 395
199 200
199 231
199 242
199 249
199 271
199 274
199 275
199 276
199 282
199 289
199 292
199 293
199 300
199 318
199 320
199 321
199 349
199 350
199 361
199 369
199 379
199 394
200 207
200 230
200 234
200 245
200 246
200 257
200 283
200 284
200 285
200 286
200 288
200 289
200 310
200 313
200 352
200 382
200 385
201 227
201 249
201 281
201 292
201 293
201 297
201 303
201 310
201 320
201 333
201 350
201 364
201 385
201 1308
202 215
202 228
202 234
202 254
202 280
202 286
202 300
202 314
202 320
202 326
202 329
202 333
202 337
202 354
202 355
202 363
202 369
202 392
203 209
203 213
203 231
203 237
203 240
203 263
203 270
203 275
203 279
203 287
203 288
203 300
203 303
203 315
203 319
203 324
203 333
203 336
203 350
203 356
203 357
203 368
203 381
203 399
204 216
204 217
204 222
204 229
204 231
204 244
204 275
204 280
204 284
204 298
204 300
204 303
204 326
204 330
204 347
204 353
204 366
204 368
204 373
204 388
205 206
205 209
205 243
205 247
205 251
205 257
205 270
205 272
205 273
205 293
205 294
205 302
205 330
205 355
205 365
205 368
205 375
205 376
205 394
205 399
206 242
206 250
206 252
206 253
206 280
206 289
206 290
206 305
206 311
206 315
206 321
206 341
206 350
206 352
206 372
206 375
206 382
206 394
207 228
207 251
207 258
207 301
207 308
207 320
207 327
207 332
207 340
207 345
207 394
208 222
208 231
208 241
208 246
208 256
208 269
208 272
208 274
208 278
208 297
208 298
208 301
208 358
208 369
208 375
208 377
208 382
209 231
209 234
209 237
209 239
209 250
209 261
209 277
209 281
209 284
209 298
209 303
209 335
209 348
209 355
209 362
209 368
210 214
210 243
210 261
210 262
210 281
210 310
210 312
210 341
211 272
211 286
211 290
211 305
211 312
211 333
211 336
211 368
211 375
211 378
211 384
211 389
211 399
212 217
212 221
212 239
212 246
212 250
212 273
212 288
212 305
212 309
212 323
212 330
212 332
212 340
212 342
212 346
212 352
212 354
212 364
212 369
212 394
212 399
213 236
213 245
213 256
213 260
213 264
213 266
213 271
213 288
213 293
213 298
213 308
213 321
213 326
213 329
213 332
213 340
213 363
213 366
213 368
213 377
214 220
214 224
214 228
214 230
214 240
214 241
214 246
214 247
214 257
214 272
214 276
214 290
214 295
214 323
214 332
214 333
214 342
214 348
214 353
214 369
214 372
214 393
215 220
215 253
215 261
215 265
215 269
215 286
215 293
215 301
215 302
215 308
215 312
215 323
215 326
215 328
215 331
215 335
215 340
215 345
215 354
215 355
215 362
215 370
215 375
215 385
215 394
215 396
216 224
216 231
216 238
216 247
216 248
216 256
216 261
216 266
216 276
216 284
216 302
216 314
216 323
216 328
216 345
216 347
216 352
216 355
216 357
216 366
216 369
216 373
216 385
216 398
217 236
217 238
217 240
217 251
217 255
217 262
217 270
217 310
217 311
217 320
217 349
217 356
217 368
217 376
217 382
217 398
218 225
218 237
218 254
218 259
218 267
218 274
218 279
218 285
218 288
218 292
218 297
218 304
218 307
218 309
218 310
218 311
218 319
218 335
218 338
218 347
218 348
218 351
218 353
218 362
218 368
218 377
218 385
218 387
219 235
219 294
219 311
219 324
219 329
219 333
219 356
219 359
219 365
219 367
219 375
219 385
220 229
220 233
220 252
220 259
220 265
220 267
220 281
220 305
220 306
220 308
220 326
220 328
220 337
220 341
220 350
220 367
220 371
220 394
221 236
221 238
221 240
221 244
221 250
221 262
221 263
221 267
221 290
221 318
221 338
221 340
221 341
221 355
221 361
221 364
221 379
221 381
221 384
221 388
222 226
222 255
222 276
222 283
222 297
222 308
222 311
222 321
222 332
222 344
222 354
222 359
222 361
222 368
222 375
222 377
222 384
223 230
223 236
223 260
223 269
223 289
223 297
223 299
223 312
223 319
223 325
223 335
223 354
223 356
223 366
223 377
223 387
223 389
223 397
224 244
224 252
224 263
224 268
224 283
224 287
224 290
224 304
224 323
224 324
224 328
224 352
224 359
224 365
224 370
224 374
224 380
224 382
224 390
225 252
225 257
225 268
225 282
225 291
225 293
225 294
225 322
225 327
225 331
225 338
225 349
225 356
225 390
225 399
226 233
226 236
226 238
226 259
226 276
226 282
226 334
226 335
226 357
226 358
226 366
226 367
226 382
226 386
227 253
227 266
227 280
227 281
227 289
227 290
227 306
227 329
227 358
227 361
227 368
227 387
227 393
227 398
228 239
228 241
228 248
228 266
228 267
228 270
228 276
228 304
228 316
228 317
228 319
228 332
228 350
228 356
228 379
228 387
228 389
228 1370
229 240
229 280
229 298
229 321
229 329
229 337
229 372
229 383
230 234
230 256
230 274
230 276
230 281
230 326
230 333
230 337
230 359
230 363
230 369
230 396
231 237
231 238
231 247
231 256
231 272
231 280
231 282
231 288
231 299
231 308
231 356
231 361
231 368
231 386
231 398
231 399
232 239
232 240
232 266
232 272
232 301
232 305
232 325
232 338
232 339
232 347
232 378
232 389
232 393
233 240
233 241
233 244
233 253
233 258
233 274
233 276
233 310
233 317
233 328
233 338
233 353
233 362
233 364
233 371
233 376
233 388
233 393
233 394
234 239
234 244
234 245
234 250
234 253
234 254
234 266
234 267
234 269
234 270
234 292
234 307
234 311
234 321
234 331
234 336
234 340
234 344
234 346
234 348
234 360
234 364
234 373
234 374
234 376
234 389
234 390
235 263
235 289
235 292
235 299
235 300
235 307
235 321
235 342
235 346
235 351
235 357
235 382
235 393
235 397
236 246
236 274
236 276
236 283
236 293
236 294
236 295
236 308
236 330
236 334
236 341
236 349
236 357
236 366
236 465
237 241
237 255
237 263
237 313
237 316
237 330
237 342
237 348
237 367
237 374
237 387
238 240
238 255
238 256
238 268
238 284
238 303
238 322
238 332
238 353
238 373
238 374
239 246
239 273
239 297
239 298
239 317
239 338
239 345
239 390
239 392
239 394
240 256
240 258
240 259
240 322
240 361
240 389
240 395
240 396
240 399
240 1934
241 268
241 290
241 293
241 299
241 316
241 323
241 325
241 328
241 329
241 338
241 339
241 359
241 369
241 371
241 398
242 243
242 261
242 291
242 301
242 315
242 324
242 338
242 351
242 352
242 354
242 356
242 362
242 364
242 379
242 398
242 804
242 1172
242 1296
243 244
243 278
243 279
243 280
243 286
243 291
243 296
243 299
243 318
243 320
243 330
243 336
243 337
243 343
243 347
243 361
243 372
243 373
243 383
244 250
244 251
244 253
244 281
244 287
244 291
244 295
244 308
244 341
244 372
244 375
245 251
245 258
245 261
245 276
245 277
245 300
245 301
245 313
245 316
245 319
245 323
245 345
245 352
245 358
245 359
245 360
245 388
246 278
246 280
246 284
246 294
246 299
246 305
246 306
246 310
246 322
246 362
246 371
246 381
246 385
246 391
247 248
247 254
247 256
247 310
247 319
247 330
247 331
247 337
247 344
247 347
247 359
247 382
247 390
247 398
248 249
248 265
248 267
248 293
248 296
248 298
248 304
248 313
248 323
248 344
248 359
248 388
248 389
248 390
249 254
249 257
249 273
249 280
249 283
249 290
249 317
249 323
249 329
249 341
249 348
249 370
249 372
249 375
249 385
249 386
249 388
250 308
250 330
250 346
250 349
250 350
250 381
251 270
251 299
251 301
251 321
251 329
251 336
251 342
251 360
251 368
251 375
251 386
251 388
251 395
252 266
252 268
252 275
252 282
252 311
252 313
252 318
252 331
252 342
252 354
252 355
252 357
252 373
252 394
253 315
253 323
253 324
253 330
253 331
253 337
253 338
253 344
253 345
253 367
253 381
253 384
253 386
253 392
253 396
254 263
254 266
254 271
254 279
254 281
254 293
254 302
254 312
254 320
254 336
254 351
254 352
254 369
254 373
254 378
254 380
255 266
255 279
255 284
255 288
255 302
255 309
255 326
255 330
255 337
255 341
255 342
255 344
255 347
255 353
255 362
255 363
255 379
255 389
255 394
256 258
256 295
256 299
256 306
256 312
256 325
256 341
256 355
256 358
256 360
256 365
256 366
257 298
257 306
257 335
257 347
257 352
257 355
257 362
257 371
257 388
257 389
257 393
257 396
257 399
258 261
258 273
258 276
258 283
258 289
258 298
258 307
258 311
258 318
258 322
258 330
258 339
258 347
258 364
258 390
258 395
259 275
259 277
259 295
259 303
259 305
259 347
259 369
259 389
259 390
259 396
260 267
260 276
260 280
260 288
260 293
260 306
260 319
260 326
260 337
260 338
260 342
260 355
260 380
260 391
261 262
261 266
261 292
261 293
261 323
261 326
261 333
261 356
261 364
261 365
261 375
261 376
261 378
261 392
262 269
262 283
262 284
262 294
262 297
262 304
262 322
262 323
262 329
262 340
262 342
262 344
262 348
262 349
262 377
262 378
262 381
262 387
262 393
263 271
263 274
263 284
263 286
263 297
263 331
263 333
263 337
263 339
263 343
263 349
263 355
263 357
263 375
263 376
263 389
264 265
264 284
264 287
264 291
264 307
264 311
264 313
264 315
264 323
264 328
264 329
264 332
264 356
264 364
264 373
264 391
264 397
265 292
265 297
265 299
265 310
265 330
265 359
265 380
265 381
265 386
265 391
265 394
265 1329
266 278
266 284
266 287
266 301
266 307
266 331
266 336
266 338
266 354
266 365
266 366
266 391
266 397
267 273
267 275
267 280
267 281
267 282
267 288
267 289
267 307
267 327
267 329
267 339
267 343
267 349
267 353
267 357
268 270
268 287
268 304
268 309
268 318
268 321
268 334
268 335
268 342
268 347
268 350
268 380
268 382
268 383
268 389
268 394
269 275
269 299
269 316
269 349
269 355
269 357
269 367
269 368
269 375
269 394
269 397
270 289
270 292
270 308
270 316
270 328
270 338
270 344
270 355
270 378
270 380
270 381
270 383
270 393
270 397
271 272
271 275
271 295
271 304
271 313
271 344
271 345
271 367
271 396
272 276
272 285
272 314
272 337
272 344
272 347
272 360
272 369
272 399
273 279
273 286
273 324
273 369
273 386
273 388
273 392
274 287
274 303
274 309
274 339
274 342
274 343
274 372
274 382
274 398
275 279
275 286
275 297
275 313
275 322
275 327
275 335
275 351
275 373
275 376
275 388
275 395
276 285
276 287
276 291
276 301
276 311
276 323
276 329
276 349
276 351
276 366
276 369
276 377
276 384
276 389
276 396
277 278
277 284
277 296
277 297
277 300
277 301
277 303
277 310
277 311
277 316
277 320
277 322
277 349
277 354
277 371
277 381
277 395
277 1971
278 301
278 305
278 358
278 361
279 282
279 284
279 286
279 302
279 304
279 310
279 328
279 331
279 333
279 340
279 358
279 367
279 368
279 371
279 374
279 391
279 392
279 395
279 398
280 283
280 297
280 299
280 311
280 317
280 318
280 330
280 338
280 343
280 344
280 364
280 398
281 283
281 288
281 289
281 302
281 304
281 305
281 306
281 308
281 312
281 323
281 324
281 331
281 338
281 344
281 364
281 365
281 366
281 374
281 379
281 389
281 392
282 291
282 307
282 318
282 343
282 366
282 378
283 294
283 295
283 311
283 318
283 325
283 331
283 341
283 345
283 350
283 364
283 373
283 376
284 290
284 315
284 317
284 322
284 324
284 325
284 341
284 358
284 364
284 372
284 380
284 384
285 291
285 311
285 336
285 338
285 342
285 349
285 373
286 288
286 297
286 309
286 321
286 323
286 383
286 388
287 302
287 307
287 314
287 315
287 334
287 339
287 345
287 350
287 366
287 368
287 387
287 396
288 289
288 312
288 318
288 325
288 327
288 330
288 331
288 334
288 336
288 353
288 364
288 367
288 379
288 388
288 396
289 308
289 311
289 327
289 356
289 365
289 366
289 377
289 383
290 302
290 327
290 336
290 346
290 348
290 363
290 364
290 365
290 368
290 369
290 374
290 381
290 384
290 389
290 393
291 295
291 301
291 313
291 314
291 319
291 320
291 327
291 334
291 337
291 340
291 343
291 344
291 351
291 355
291 369
291 376
291 388
291 394
291 397
292 293
292 296
292 298
292 302
292 322
292 324
292 333
292 334
292 358
292 359
292 360
292 361
292 376
292 378
292 387
292 392
292 393
292 394
293 295
293 297
293 305
293 309
293 320
293 324
293 328
293 335
293 339
293 348
293 358
293 364
293 366
293 367
293 373
293 377
293 379
294 296
294 315
294 316
294 320
294 322
294 329
294 339
294 342
294 346
294 347
294 355
294 372
294 388
294 389
295 301
295 302
295 311
295 324
295 331
295 337
295 355
295 357
295 364
295 368
295 369
295 386
296 301
296 326
296 328
296 356
296 360
296 367
296 390
296 399
297 305
297 311
297 328
297 333
297 359
297 375
298 311
298 313
298 319
298 322
298 345
298 362
298 365
298 372
298 388
298 390
298 397
299 302
299 344
299 368
299 373
300 302
300 316
300 322
300 328
300 354
300 364
300 366
300 373
300 376
300 383
300 386
300 394
300 396
301 302
301 307
301 313
301 314
301 316
301 319
301 326
301 332
301 340
301 341
301 366
301 368
301 387
301 396
302 303
302 305
302 318
302 320
302 323
302 333
302 351
302 352
302 357
302 365
302 378
302 384
303 304
303 311
303 326
303 337
303 345
303 353
303 355
303 362
303 382
303 384
303 389
303 398
304 315
304 325
304 345
304 349
304 373
304 375
305 315
305 340
305 342
305 354
305 357
305 370
305 385
306 336
306 342
306 351
306 357
306 370
306 373
306 379
307 321
307 346
307 355
307 358
307 365
307 373
307 399
308 330
308 341
308 346
308 349
308 356
308 366
308 368
308 376
308 379
308 388
309 312
309 332
309 337
309 339
309 340
309 343
309 358
309 370
309 381
309 394
309 397
310 313
310 346
310 382
310 391
311 332
311 340
311 341
311 352
311 356
311 358
311 361
311 362
311 398
312 324
312 328
312 329
312 335
312 356
312 360
312 392
313 316
313 338
313 342
313 370
313 392
313 398
313 1857
314 322
314 326
314 327
314 354
314 364
314 384
314 388
315 322
315 324
315 334
315 338
315 340
315 344
315 359
315 361
315 365
315 388
316 339
316 344
316 351
316 358
316 382
316 399
317 339
317 348
317 350
317 354
317 358
317 377
317 378
317 386
317 388
317 398
317 1657
318 327
318 340
318 344
318 391
318 397
319 329
319 338
319 365
319 375
319 386
320 323
320 333
320 337
320 375
320 387
320 390
321 324
321 344
321 346
321 347
321 391
321 394
322 345
322 351
322 353
322 363
322 370
322 395
323 328
323 371
323 379
323 383
323 385
324 334
324 353
324 363
324 375
324 376
324 383
324 388
324 390
324 393
325 331
325 335
325 375
325 386
325 399
326 327
326 335
326 342
326 345
326 352
326 398
327 332
327 334
327 335
327 347
327 370
327 374
327 375
327 384
327 398
328 337
328 352
328 356
328 368
328 394
328 395
328 885
329 345
329 355
329 364
329 376
329 378
329 391
329 681
329 1359
330 335
330 355
330 384
330 385
330 392
331 335
331 336
331 344
331 358
331 377
331 384
331 389
331 391
332 339
332 345
332 350
332 352
332 371
332 392
332 397
332 1713
333 347
333 350
333 369
333 398
334 337
334 341
334 345
334 361
334 363
334 379
334 383
334 385
334 390
334 392
334 393
334 397
335 583
336 342
336 357
336 363
336 372
336 392
337 343
337 344
337 354
337 356
337 364
337 370
337 383
338 362
338 367
338 369
338 373
338 392
338 393
339 341
339 355
339 361
339 367
339 371
339 376
339 393
340 356
340 360
340 376
341 356
341 365
341 375
341 376
342 347
342 353
342 372
342 374
343 359
343 360
343 363
343 365
343 366
343 368
343 385
343 387
343 391
344 351
344 355
344 359
344 375
344 387
344 399
345 356
345 366
345 385
346 348
346 355
346 364
346 367
346 370
346 375
346 392
346 395
347 349
347 354
347 367
347 373
348 361
348 374
348 382
348 383
348 388
348 393
349 373
349 389
349 396
350 355
350 375
350 387
350 390
351 363
351 380
351 383
351 385
352 365
352 372
352 375
352 386
353 357
353 376
353 393
353 396
354 361
354 366
354 372
354 375
354 381
354 385
355 370
355 391
355 393
356 361
356 367
356 375
357 362
357 386
357 391
357 394
357 396
357 398
358 379
358 397
359 370
359 372
359 377
359 379
359 384
359 392
360 363
360 377
360 380
360 388
360 393
361 362
361 369
361 380
361 384
361 387
362 363
362 392
363 375
363 385
363 393
364 379
364 386
364 389
364 395
366 385
366 393
367 372
367 374
368 378
368 379
368 391
368 394
368 425
368 442
369 391
369 393
370 390
370 392
370 397
371 392
371 394
372 375
372 382
372 1956
373 390
374 377
374 378
374 380
374 387
375 378
376 383
376 384
376 390
378 379
378 381
379 388
379 392
380 383
380 387
380 388
380 393
380 397
381 398
381 1396
382 399
383 391
383 392
383 393
384 395
386 392
386 397
386 399
387 393
388 394
389 1466
390 392
390 395
391 394
393 398
396 397
396 1797
400 419
400 421
400 449
400 451
400 475
400 482
400 493
400 507
400 517
400 520
400 533
400 543
400 552
400 561
400 569
400 571
400 582
400 590
400 600
400 607
400 614
400 618
400 619
400 623
400 635
400 640
400 644
400 665
400 697
400 701
400 703
400 716
400 732
400 734
400 738
400 743
400 745
400 749
400 753
400 757
400 758
400 761
401 421
401 423
401 433
401 434
401 435
401 460
401 476
401 488
401 494
401 512
401 526
401 532
401 549
401 558
401 560
401 561
401 562
401 563
401 564
401 573
401 580
401 589
401 600
401 628
401 637
401 640
401 658
401 670
401 673
401 677
401 693
401 705
401 708
401 765
401 770
401 771
401 777
401 789
401 790
401 794
401 798
402 405
402 412
402 441
402 458
402 462
402 469
402 496
402 505
402 516
402 522
402 527
402 536
402 546
402 553
402 562
402 563
402 570
402 580
402 587
402 621
402 622
402 623
402 631
402 636
402 639
402 643
402 644
402 653
402 662
402 666
402 684
402 706
402 711
402 720
402 736
402 749
402 768
402 776
402 782
402 785
402 790
402 794
402 797
403 409
403 416
403 417
403 420
403 430
403 431
403 441
403 445
403 455
403 474
403 479
403 480
403 487
403 492
403 494
403 499
403 509
403 510
403 548
403 552
403 555
403 574
403 583
403 585
403 590
403 625
403 629
403 633
403 638
403 648
403 660
403 662
403 672
403 692
403 693
403 704
403 706
403 707
403 710
403 727
403 741
403 754
403 771
403 796
403 1483
404 406
404 412
404 414
404 468
404 487
404 490
404 506
404 521
404 535
404 553
404 558
404 568
404 575
404 577
404 592
404 595
404 610
404 616
404 623
404 625
404 631
404 639
404 665
404 671
404 677
404 691
404 706
404 710
404 712
404 721
404 729
404 740
404 743
404 752
404 772
405 407
405 412
405 419
405 435
405 439
405 443
405 459
405 464
405 475
405 490
405 523
405 527
405 544
405 549
405 559
405 566
405 567
405 578
405 608
405 610
405 614
405 615
405 635
405 644
405 665
405 671
405 702
405 709
405 720
405 731
405 745
405 747
405 749
405 751
405 753
405 754
405 760
405 761
405 773
405 791
405 797
406 411
406 418
406 432
406 434
406 448
406 455
406 481
406 492
406 501
406 507
406 510
406 530
406 534
406 541
406 550
406 599
406 611
406 613
406 637
406 648
406 666
406 668
406 672
406 674
406 676
406 682
406 706
406 707
406 716
406 729
406 733
406 738
406 763
406 775
406 791
406 796
406 797
407 410
407 414
407 418
407 420
407 426
407 461
407 464
407 472
407 473
407 478
407 483
407 498
407 499
407 505
407 545
407 550
407 560
407 569
407 576
407 581
407 603
407 614
407 621
407 629
407 661
407 664
407 705
407 739
407 747
407 752
407 754
407 755
407 774
407 782
407 787
407 799
408 419
408 423
408 431
408 437
408 446
408 449
408 493
408 497
408 502
408 510
408 511
408 512
408 514
408 515
408 522
408 539
408 543
408 568
408 594
408 597
408 599
408 600
408 602
408 604
408 619
408 623
408 628
408 630
408 632
408 635
408 637
408 650
408 653
408 654
408 684
408 689
408 704
408 712
408 726
408 729
408 733
408 741
408 759
408 760
408 774
408 776
408 793
408 796
408 797
409 414
409 418
409 420
409 445
409 450
409 462
409 463
409 464
409 472
409 475
409 490
409 495
409 496
409 558
409 564
409 568
409 627
409 632
409 643
409 653
409 669
409 672
409 680
409 683
409 698
409 703
409 705
409 708
409 736
409 742
409 747
409 748
409 751
409 755
409 782
409 787
410 415
410 422
410 425
410 426
410 434
410 437
410 451
410 474
410 481
410 497
410 502
410 507
410 512
410 517
410 519
410 532
410 534
410 555
410 565
410 588
410 589
410 592
410 622
410 634
410 645
410 654
410 657
410 666
410 689
410 693
410 696
410 707
410 717
410 720
410 723
410 727
410 743
410 762
410 763
411 415
411 465
411 503
411 520
411 528
411 542
411 547
411 548
411 553
411 554
411 563
411 587
411 591
411 604
411 606
411 617
411 627
411 664
411 681
411 688
411 691
411 692
411 697
411 716
411 726
411 740
411 745
411 774
411 796
412 425
412 426
412 441
412 450
412 454
412 456
412 461
412 472
412 481
412 486
412 492
412 495
412 500
412 510
412 512
412 520
412 527
412 529
412 536
412 540
412 545
412 554
412 564
412 569
412 570
412 582
412 597
412 598
412 606
412 608
412 614
412 616
412 620
412 634
412 637
412 650
412 661
412 668
412 670
412 676
412 679
412 680
412 684
412 685
412 697
412 728
412 757
412 758
412 769
412 796
413 424
413 431
413 491
413 495
413 510
413 511
413 518
413 522
413 534
413 537
413 543
413 558
413 572
413 585
413 601
413 605
413 630
413 639
413 650
413 662
413 671
413 681
413 729
413 741
413 748
413 754
413 760
413 790
413 791
413 797
413 799
414 420
414 424
414 435
414 437
414 453
414 462
414 472
414 484
414 486
414 497
414 513
414 524
414 525
414 558
414 591
414 595
414 598
414 602
414 610
414 628
414 631
414 635
414 656
414 659
414 664
414 675
414 697
414 702
414 703
414 706
414 708
414 713
414 715
414 718
414 722
414 731
414 737
414 740
414 751
414 755
414 756
414 762
414 763
414 765
414 770
414 779
414 781
414 785
414 798
415 427
415 449
415 468
415 483
415 490
415 503
415 515
415 520
415 522
415 525
415 532
415 546
415 552
415 563
415 572
415 581
415 610
415 616
415 625
415 635
415 639
415 644
415 647
415 665
415 679
415 688
415 695
415 710
415 713
415 736
415 743
415 750
415 765
415 769
415 782
415 787
415 790
415 795
415 799
415 945
416 417
416 418
416 433
416 456
416 458
416 461
416 469
416 475
416 478
416 523
416 525
416 535
416 541
416 552
416 554
416 560
416 561
416 568
416 574
416 575
416 577
416 585
416 595
416 601
416 608
416 609
416 611
416 617
416 623
416 642
416 643
416 660
416 668
416 676
416 677
416 679
416 687
416 703
416 704
416 707
416 717
416 744
416 769
416 772
416 773
416 779
416 782
416 783
417 420
417 434
417 463
417 470
417 475
417 488
417 505
417 517
417 528
417 535
417 536
417 541
417 543
417 547
417 549
417 553
417 556
417 557
417 560
417 562
417 570
417 576
417 580
417 602
417 607
417 612
417 618
417 620
417 637
417 655
417 687
417 688
417 704
417 709
417 712
417 723
417 725
417 731
417 738
417 757
417 773
417 781
417 796
417 799
418 423
418 431
418 438
418 439
418 453
418 456
418 459
418 460
418 464
418 470
418 472
418 479
418 501
418 506
418 513
418 521
418 534
418 539
418 567
418 588
418 591
418 602
418 644
418 651
418 662
418 665
418 668
418 671
418 689
418 702
418 715
418 722
418 723
418 731
418 733
418 752
418 782
418 799
419 422
419 448
419 450
419 463
419 469
419 491
419 498
419 517
419 546
419 563
419 565
419 576
419 604
419 607
419 613
419 619
419 622
419 632
419 637
419 674
419 675
419 706
419 708
419 726
419 737
419 739
419 759
419 768
419 776
419 784
419 793
419 795
420 441
420 464
420 469
420 472
420 482
420 494
420 502
420 505
420 506
420 509
420 512
420 514
420 518
420 523
420 546
420 586
420 587
420 600
420 608
420 609
420 629
420 637
420 640
420 642
420 645
420 651
420 652
420 653
420 665
420 680
420 681
420 683
420 692
420 705
420 713
420 719
420 745
420 752
420 768
420 771
420 774
420 778
420 797
421 436
421 439
421 443
421 446
421 453
421 454
421 455
421 469
421 473
421 478
421 486
421 497
421 521
421 534
421 535
421 542
421 554
421 560
421 566
421 592
421 611
421 616
421 617
421 623
421 624
421 627
421 630
421 635
421 639
421 655
421 661
421 665
421 669
421 684
421 708
421 710
421 719
421 730
421 743
421 759
421 771
421 789
421 794
422 427
422 441
422 443
422 450
422 456
422 473
422 497
422 506
422 519
422 540
422 543
422 544
422 554
422 558
422 617
422 620
422 648
422 653
422 657
422 667
422 674
422 677
422 688
422 702
422 719
422 725
422 727
422 731
422 767
422 777
422 782
422 787
422 794
422 1846
423 431
423 464
423 479
423 489
423 495
423 511
423 514
423 523
423 530
423 539
423 550
423 569
423 570
423 574
423 582
423 591
423 600
423 603
423 605
423 607
423 617
423 620
423 624
423 629
423 639
423 651
423 660
423 668
423 672
423 680
423 690
423 703
423 717
423 723
423 752
423 756
423 762
423 763
423 793
424 425
424 442
424 454
424 463
424 466
424 469
424 479
424 493
424 497
424 498
424 502
424 503
424 509
424 510
424 531
424 532
424 541
424 542
424 555
424 562
424 564
424 565
424 577
424 582
424 588
424 589
424 617
424 619
424 627
424 635
424 651
424 659
424 667
424 680
424 682
424 689
424 691
424 692
424 697
424 714
424 735
424 736
424 759
424 760
424 797
425 439
425 448
425 457
425 479
425 519
425 532
425 545
425 548
425 577
425 578
425 582
425 597
425 612
425 613
425 617
425 632
425 644
425 661
425 668
425 684
425 686
425 689
425 707
425 719
425 725
425 728
425 739
425 744
425 750
425 757
425 759
425 767
425 793
425 794
425 799
425 1837
426 433
426 438
426 441
426 444
426 448
426 458
426 465
426 485
426 496
426 503
426 531
426 534
426 536
426 537
426 543
426 544
426 549
426 572
426 595
426 600
426 610
426 620
426 627
426 633
426 663
426 665
426 675
426 677
426 678
426 694
426 696
426 701
426 709
426 717
426 718
426 728
426 739
426 747
426 780
426 785
427 433
427 445
427 448
427 449
427 453
427 462
427 466
427 490
427 531
427 538
427 557
427 574
427 581
427 591
427 609
427 620
427 621
427 625
427 635
427 651
427 671
427 681
427 705
427 706
427 724
427 730
427 741
427 749
427 750
427 753
427 763
427 767
427 772
427 773
427 777
427 797
428 435
428 449
428 471
428 491
428 495
428 498
428 516
428 531
428 547
428 559
428 575
428 581
428 584
428 585
428 587
428 593
428 598
428 599
428 620
428 622
428 624
428 629
428 644
428 646
428 656
428 657
428 668
428 676
428 679
428 680
428 684
428 705
428 722
428 723
428 730
428 743
428 751
428 757
428 762
428 787
428 792
428 795
428 797
428 798
429 443
429 449
429 452
429 478
429 483
429 508
429 527
429 531
429 556
429 561
429 569
429 573
429 574
429 576
429 598
429 602
429 621
429 630
429 642
429 644
429 646
429 649
429 681
429 687
429 690
429 691
429 695
429 714
429 718
429 719
429 722
429 724
429 738
429 739
429 757
429 759
429 775
429 776
429 785
429 1384
430 434
430 437
430 454
430 466
430 472
430 476
430 493
430 497
430 499
430 502
430 530
430 544
430 553
430 570
430 576
430 579
430 594
430 611
430 617
430 634
430 638
430 640
430 641
430 657
430 671
430 672
430 690
430 693
430 695
430 698
430 718
430 742
430 743
430 751
430 752
430 756
430 761
430 764
430 787
431 437
431 438
431 459
431 483
431 484
431 495
431 507
431 525
431 530
431 533
431 537
431 547
431 557
431 567
431 570
431 571
431 605
431 606
431 609
431 610
431 619
431 642
431 651
431 658
431 663
431 686
431 689
431 691
431 709
431 719
431 726
431 733
431 757
431 759
431 760
431 781
431 784
431 796
432 439
432 450
432 456
432 476
432 488
432 493
432 525
432 526
432 528
432 543
432 547
432 564
432 566
432 586
432 589
432 601
432 612
432 640
432 648
432 654
432 659
432 661
432 663
432 676
432 683
432 684
432 693
432 707
432 718
432 722
432 725
432 743
432 747
432 753
432 767
432 769
432 778
433 448
433 468
433 484
433 494
433 499
433 503
433 511
433 516
433 518
433 520
433 529
433 533
433 542
433 553
433 559
433 571
433 595
433 614
433 619
433 626
433 635
433 637
433 640
433 649
433 655
433 656
433 672
433 677
433 684
433 694
433 704
433 717
433 720
433 733
433 748
433 756
433 771
433 783
433 786
433 797
434 438
434 441
434 451
434 458
434 461
434 466
434 478
434 492
434 503
434 524
434 525
434 538
434 551
434 553
434 554
434 560
434 561
434 573
434 579
434 580
434 652
434 679
434 680
434 702
434 703
434 710
434 715
434 717
434 721
434 743
434 745
434 751
434 788
434 791
434 796
435 459
435 464
435 472
435 507
435 518
435 525
435 553
435 568
435 609
435 613
435 618
435 621
435 632
435 637
435 642
435 643
435 675
435 677
435 695
435 703
435 716
435 717
435 727
435 729
435 738
435 744
435 747
435 789
435 791
435 796
436 458
436 461
436 470
436 491
436 495
436 511
436 513
436 515
436 519
436 520
436 544
436 548
436 551
436 552
436 570
436 592
436 594
436 617
436 640
436 647
436 655
436 659
436 674
436 696
436 715
436 760
436 763
436 783
437 465
437 473
437 493
437 497
437 511
437 521
437 533
437 538
437 540
437 556
437 576
437 583
437 617
437 632
437 641
437 642
437 658
437 663
437 665
437 670
437 675
437 694
437 725
437 734
437 745
437 762
437 765
437 770
437 780
438 441
438 451
438 452
438 453
438 457
438 462
438 468
438 475
438 486
438 501
438 509
438 513
438 518
438 540
438 559
438 563
438 584
438 601
438 610
438 625
438 635
438 636
438 639
438 648
438 653
438 667
438 673
438 704
438 705
438 710
438 720
438 722
438 726
438 727
438 730
438 731
438 741
438 749
438 759
438 767
439 443
439 454
439 470
439 477
439 487
439 512
439 543
439 548
439 554
439 559
439 563
439 564
439 572
439 575
439 577
439 582
439 606
439 615
439 618
439 636
439 645
439 651
439 661
439 666
439 667
439 675
439 676
439 683
439 697
439 710
439 721
439 725
439 729
439 743
439 745
439 764
439 766
439 768
439 776
439 789
439 791
440 460
440 467
440 473
440 485
440 494
440 500
440 506
440 521
440 531
440 533
440 542
440 545
440 547
440 554
440 555
440 566
440 569
440 573
440 589
440 594
440 600
440 608
440 628
440 632
440 652
440 665
440 667
440 669
440 673
440 674
440 676
440 699
440 719
440 756
440 762
440 763
440 773
440 787
440 796
440 1644
441 455
441 456
441 470
441 482
441 485
441 487
441 501
441 502
441 507
441 517
441 518
441 520
441 522
441 533
441 539
441 540
441 542
441 546
441 554
441 573
441 580
441 588
441 601
441 618
441 621
441 623
441 647
441 652
441 660
441 673
441 678
441 681
441 690
441 700
441 718
441 724
441 735
441 751
441 769
441 792
441 797
441 799
442 446
442 450
442 508
442 521
442 550
442 554
442 557
442 561
442 565
442 568
442 591
442 592
442 599
442 663
442 667
442 673
442 674
442 677
442 682
442 721
442 723
442 735
442 753
442 776
442 779
443 456
443 461
443 470
443 472
443 475
443 479
443 480
443 494
443 495
443 506
443 509
443 528
443 536
443 538
443 543
443 547
443 553
443 582
443 590
443 632
443 637
443 639
443 641
443 643
443 656
443 659
443 660
443 663
443 665
443 667
443 682
443 693
443 721
443 744
443 745
443 762
443 769
443 771
443 786
443 787
443 793
443 796
444 445
444 457
444 468
444 476
444 480
444 491
444 498
444 504
444 505
444 521
444 522
444 537
444 555
444 580
444 592
444 602
444 613
444 630
444 639
444 640
444 666
444 668
444 672
444 692
444 718
444 728
444 771
444 783
445 452
445 453
445 474
445 475
445 479
445 499
445 504
445 505
445 509
445 525
445 530
445 533
445 553
445 558
445 562
445 570
445 571
445 573
445 576
445 579
445 590
445 596
445 620
445 621
445 636
445 646
445 656
445 667
445 674
445 676
445 688
445 697
445 713
445 724
445 730
445 739
445 756
445 757
445 791
445 797
446 449
446 454
446 455
446 456
446 459
446 463
446 465
446 466
446 474
446 497
446 499
446 512
446 514
446 524
446 527
446 529
446 536
446 540
446 547
446 556
446 570
446 571
446 572
446 574
446 582
446 584
446 600
446 611
446 633
446 636
446 642
446 654
446 655
446 658
446 661
446 669
446 671
446 672
446 677
446 715
446 733
446 746
446 755
446 766
446 781
446 785
446 795
447 450
447 453
447 469
447 477
447 490
447 496
447 502
447 539
447 545
447 557
447 558
447 570
447 579
447 590
447 593
447 598
447 602
447 635
447 648
447 650
447 653
447 655
447 659
447 674
447 677
447 683
447 684
447 696
447 707
447 714
447 717
447 723
447 730
447 764
447 771
447 772
448 453
448 457
448 460
448 470
448 501
448 502
448 506
448 527
448 530
448 532
448 535
448 542
448 547
448 551
448 558
448 565
448 567
448 568
448 576
448 585
448 593
448 599
448 601
448 623
448 635
448 640
448 675
448 690
448 694
448 699
448 705
448 712
448 726
449 461
449 464
449 476
449 491
449 493
449 497
449 504
449 508
449 541
449 542
449 544
449 550
449 555
449 564
449 567
449 572
449 588
449 605
449 637
449 651
449 671
449 692
449 701
449 712
449 721
449 727
449 729
449 732
449 763
449 782
449 786
450 452
450 470
450 486
450 489
450 511
450 549
450 570
450 573
450 579
450 582
450 587
450 591
450 596
450 602
450 603
450 649
450 702
450 709
450 716
450 719
450 726
450 740
450 753
450 757
450 783
450 787
451 466
451 477
451 486
451 534
451 551
451 575
451 576
451 628
451 629
451 632
451 645
451 647
451 648
451 659
451 665
451 669
451 675
451 676
451 681
451 685
451 689
451 694
451 708
451 740
451 760
451 769
451 796
452 455
452 456
452 457
452 458
452 470
452 480
452 521
452 522
452 536
452 543
452 593
452 608
452 637
452 656
452 670
452 672
452 682
452 683
452 690
452 698
452 701
452 704
452 706
452 716
452 741
452 744
452 750
452 752
452 772
452 773
452 780
452 1952
453 454
453 464
453 465
453 482
453 483
453 486
453 488
453 490
453 491
453 495
453 497
453 498
453 501
453 511
453 521
453 541
453 544
453 578
453 588
453 594
453 600
453 604
453 624
453 631
453 644
453 663
453 674
453 679
453 686
453 695
453 698
453 703
453 711
453 729
453 736
453 742
453 752
453 754
453 761
453 763
453 768
453 774
453 777
453 778
453 780
453 794
453 795
454 466
454 471
454 472
454 476
454 494
454 500
454 511
454 515
454 540
454 546
454 548
454 595
454 596
454 597
454 600
454 646
454 652
454 673
454 686
454 693
454 695
454 714
454 728
454 742
454 750
454 760
454 768
455 456
455 460
455 464
455 467
455 494
455 511
455 513
455 525
455 526
455 527
455 564
455 575
455 590
455 616
455 618
455 625
455 630
455 639
455 646
455 649
455 657
455 672
455 682
455 731
455 741
455 767
455 772
455 784
456 460
456 466
456 482
456 491
456 493
456 494
456 503
456 509
456 531
456 539
456 548
456 552
456 554
456 558
456 561
456 578
456 587
456 591
456 592
456 595
456 610
456 627
456 646
456 648
456 667
456 673
456 677
456 680
456 685
456 693
456 697
456 712
456 716
456 730
456 731
456 761
456 781
456 793
456 797
457 459
457 465
457 483
457 485
457 489
457 490
457 523
457 534
457 544
457 552
457 563
457 564
457 570
457 579
457 584
457 591
457 596
457 599
457 611
457 616
457 618
457 620
457 625
457 632
457 669
457 673
457 676
457 677
457 694
457 701
457 718
457 722
457 747
457 765
457 767
457 775
457 792
457 796
458 460
458 479
458 498
458 501
458 502
458 509
458 526
458 534
458 540
458 568
458 571
458 572
458 581
458 594
458 626
458 630
458 647
458 662
458 679
458 682
458 705
458 715
458 719
458 738
458 740
458 753
458 778
458 783
458 798
459 464
459 467
459 469
459 475
459 476
459 487
459 505
459 506
459 519
459 523
459 524
459 537
459 547
459 550
459 553
459 560
459 565
459 570
459 571
459 583
459 587
459 611
459 613
459 616
459 633
459 641
459 654
459 672
459 693
459 710
459 741
459 760
459 767
459 775
459 781
459 786
460 462
460 468
460 473
460 479
460 485
460 491
460 493
460 497
460 498
460 505
460 520
460 537
460 551
460 555
460 567
460 572
460 579
460 616
460 638
460 652
460 663
460 668
460 670
460 685
460 689
460 690
460 699
460 706
460 714
460 732
460 735
460 751
460 755
460 781
460 782
460 783
460 786
460 790
461 469
461 477
461 504
461 510
461 514
461 516
461 519
461 531
461 541
461 543
461 559
461 561
461 569
461 583
461 584
461 585
461 601
461 612
461 625
461 632
461 636
461 639
461 655
461 657
461 664
461 676
461 677
461 686
461 705
461 730
461 740
461 749
461 751
461 758
461 761
461 767
461 782
461 793
461 798
462 470
462 486
462 489
462 514
462 526
462 531
462 536
462 537
462 548
462 563
462 580
462 586
462 594
462 606
462 611
462 614
462 616
462 626
462 627
462 628
462 629
462 635
462 647
462 655
462 672
462 676
462 680
462 685
462 687
462 712
462 717
462 734
462 739
462 751
462 761
462 762
462 785
462 789
463 466
463 482
463 494
463 520
463 522
463 531
463 540
463 554
463 556
463 557
463 563
463 570
463 580
463 599
463 603
463 604
463 629
463 637
463 680
463 689
463 699
463 707
463 721
463 728
463 739
463 744
463 756
463 757
463 759
463 766
463 775
463 790
464 469
464 472
464 482
464 489
464 493
464 507
464 515
464 522
464 529
464 531
464 535
464 586
464 613
464 616
464 625
464 635
464 642
464 651
464 652
464 655
464 673
464 677
464 682
464 691
464 771
464 778
464 779
464 789
465 474
465 491
465 497
465 504
465 515
465 516
465 522
465 551
465 553
465 558
465 573
465 585
465 590
465 599
465 604
465 610
465 612
465 615
465 619
465 621
465 629
465 641
465 657
465 667
465 668
465 690
465 694
465 726
465 727
465 733
465 742
465 744
465 751
465 790
465 791
465 799
466 490
466 497
466 500
466 503
466 504
466 516
466 520
466 521
466 532
466 547
466 563
466 575
466 577
466 581
466 616
466 647
466 659
466 672
466 684
466 690
466 742
466 743
466 749
466 759
466 761
466 764
466 770
466 785
467 480
467 490
467 516
467 541
467 548
467 553
467 561
467 585
467 586
467 603
467 615
467 638
467 645
467 647
467 656
467 693
467 694
467 715
467 717
467 719
467 722
467 726
467 729
467 742
467 757
467 758
467 786
468 480
468 483
468 494
468 512
468 515
468 520
468 536
468 542
468 546
468 549
468 556
468 588
468 591
468 596
468 606
468 607
468 609
468 611
468 618
468 621
468 623
468 637
468 642
468 651
468 677
468 686
468 734
468 736
468 744
468 747
468 763
468 764
468 766
468 767
468 787
468 795
469 474
469 491
469 494
469 506
469 511
469 514
469 520
469 523
469 526
469 539
469 566
469 569
469 588
469 610
469 614
469 632
469 645
469 658
469 659
469 661
469 686
469 692
469 708
469 730
469 746
469 757
469 791
469 798
469 1035
470 471
470 473
470 478
470 480
470 489
470 507
470 524
470 540
470 543
470 545
470 557
470 571
470 580
470 588
470 592
470 631
470 648
470 662
470 676
470 680
470 692
470 732
470 735
470 741
470 743
470 754
470 759
470 764
470 767
470 768
470 773
470 792
471 476
471 480
471 513
471 518
471 533
471 549
471 601
471 605
471 611
471 621
471 633
471 638
471 690
471 715
471 718
471 724
471 725
471 730
471 743
471 744
471 758
471 1338
472 485
472 489
472 492
472 499
472 574
472 578
472 581
472 592
472 601
472 612
472 615
472 618
472 623
472 628
472 637
472 639
472 655
472 656
472 667
472 675
472 710
472 712
472 752
472 756
472 771
472 1717
473 484
473 493
473 497
473 508
473 534
473 538
473 541
473 557
473 562
473 565
473 591
473 597
473 606
473 621
473 623
473 640
473 645
473 675
473 681
473 683
473 697
473 700
473 710
473 728
473 735
473 739
473 752
473 775
473 786
473 788
473 795
474 485
474 490
474 526
474 541
474 573
474 588
474 597
474 612
474 641
474 653
474 655
474 668
474 679
474 686
474 730
474 764
474 779
475 480
475 494
475 503
475 515
475 519
475 523
475 527
475 533
475 541
475 549
475 550
475 567
475 572
475 581
475 582
475 588
475 597
475 608
475 631
475 636
475 675
475 691
475 721
475 738
475 740
475 750
475 783
475 799
476 497
476 498
476 508
476 524
476 534
476 550
476 565
476 566
476 575
476 583
476 588
476 598
476 604
476 617
476 619
476 621
476 636
476 640
476 645
476 662
476 666
476 668
476 669
476 681
476 690
476 692
476 700
476 701
476 734
476 748
476 749
476 754
476 755
476 775
476 784
477 480
477 486
477 487
477 504
477 509
477 512
477 515
477 517
477 527
477 529
477 532
477 533
477 542
477 543
477 549
477 551
477 592
477 654
477 675
477 694
477 713
477 716
477 728
477 738
477 755
477 756
477 758
477 773
477 777
477 786
477 790
477 794
477 796
477 797
478 503
478 516
478 534
478 537
478 544
478 547
478 570
478 573
478 599
478 604
478 608
478 632
478 647
478 655
478 675
478 677
478 679
478 698
478 700
478 704
478 720
478 733
478 740
478 760
478 764
478 765
478 766
478 771
478 781
478 788
478 794
478 799
479 486
479 489
479 493
479 512
479 518
479 525
479 526
479 537
479 538
479 553
479 565
479 566
479 569
479 570
479 573
479 576
479 596
479 600
479 603
479 606
479 613
479 630
479 631
479 646
479 651
479 655
479 671
479 681
479 709
479 718
479 751
479 794
479 799
480 483
480 488
480 505
480 510
480 513
480 523
480 527
480 535
480 538
480 555
480 560
480 572
480 574
480 586
480 587
480 588
480 597
480 598
480 608
480 609
480 621
480 629
480 630
480 632
480 635
480 640
480 654
480 660
480 669
480 681
480 691
480 693
480 701
480 715
480 717
480 745
480 751
480 763
480 767
480 779
480 780
480 782
480 783
480 789
480 792
481 498
481 499
481 530
481 544
481 545
481 550
481 567
481 571
481 572
481 575
481 579
481 583
481 586
481 589
481 592
481 593
481 595
481 602
481 605
481 611
481 613
481 648
481 656
481 657
481 675
481 697
481 706
481 707
481 722
481 737
481 739
481 740
481 749
481 750
481 751
481 755
481 766
481 768
481 769
481 793
482 489
482 507
482 530
482 535
482 546
482 571
482 589
482 595
482 616
482 623
482 633
482 638
482 650
482 667
482 698
482 701
482 713
482 728
482 752
482 769
482 773
482 1422
483 507
483 514
483 516
483 521
483 527
483 528
483 539
483 576
483 587
483 608
483 617
483 621
483 631
483 636
483 644
483 645
483 657
483 676
483 677
483 689
483 699
483 701
483 713
483 717
483 761
483 773
483 776
484 511
484 513
484 514
484 516
484 519
484 532
484 543
484 561
484 565
484 571
484 592
484 605
484 618
484 619
484 622
484 641
484 656
484 657
484 660
484 661
484 682
484 687
484 688
484 691
484 700
484 707
484 723
484 728
484 729
484 731
484 735
484 737
484 740
484 741
484 742
484 750
484 759
484 760
484 767
484 768
484 792
485 486
485 488
485 490
485 497
485 521
485 540
485 544
485 553
485 569
485 578
485 579
485 583
485 585
485 586
485 610
485 624
485 625
485 628
485 641
485 646
485 651
485 653
485 658
485 663
485 673
485 682
485 683
485 709
485 720
485 724
485 751
485 757
485 765
485 769
485 784
485 792
485 797
486 500
486 513
486 516
486 533
486 550
486 559
486 586
486 596
486 612
486 622
486 628
486 632
486 636
486 664
486 666
486 667
486 671
486 677
486 682
486 688
486 690
486 693
486 695
486 697
486 706
486 730
486 734
486 743
486 752
486 759
486 761
486 764
486 777
486 782
486 787
487 488
487 497
487 521
487 577
487 579
487 586
487 595
487 605
487 616
487 643
487 645
487 667
487 670
487 676
487 677
487 725
487 732
487 734
487 737
487 738
487 745
487 746
487 747
487 755
487 757
487 759
487 773
487 781
487 796
488 491
488 517
488 525
488 528
488 547
488 554
488 561
488 564
488 573
488 578
488 592
488 603
488 615
488 621
488 648
488 653
488 656
488 660
488 679
488 708
488 718
488 719
488 727
488 728
488 729
488 762
488 766
488 777
488 785
489 519
489 527
489 544
489 547
489 557
489 563
489 574
489 575
489 589
489 599
489 611
489 612
489 613
489 619
489 625
489 631
489 636
489 659
489 670
489 701
489 709
489 721
489 722
489 736
489 737
489 748
489 761
489 780
489 798
490 493
490 502
490 510
490 520
490 541
490 542
490 544
490 545
490 569
490 583
490 597
490 612
490 613
490 651
490 657
490 662
490 668
490 670
490 672
490 676
490 684
490 687
490 700
490 713
490 720
490 724
490 763
490 769
490 770
490 782
490 789
490 798
490 1909
491 502
491 507
491 530
491 535
491 542
491 558
491 563
491 571
491 576
491 587
491 615
491 628
491 633
491 644
491 665
491 691
491 710
491 734
491 736
491 738
491 755
491 770
491 794
492 522
492 529
492 540
492 548
492 574
492 581
492 596
492 624
492 639
492 652
492 655
492 662
492 668
492 706
492 711
492 732
492 734
492 743
492 753
492 756
492 760
492 763
492 774
492 782
492 783
492 785
492 789
493 496
493 504
493 509
493 510
493 525
493 532
493 548
493 560
493 569
493 579
493 615
493 622
493 635
493 675
493 678
493 682
493 686
493 696
493 700
493 702
493 754
493 771
493 774
493 782
493 786
493 793
494 502
494 514
494 517
494 540
494 544
494 549
494 572
494 576
494 603
494 606
494 624
494 627
494 629
494 630
494 659
494 664
494 696
494 697
494 700
494 703
494 709
494 733
494 744
494 773
494 783
494 787
494 789
495 499
495 512
495 514
495 518
495 523
495 524
495 547
495 553
495 557
495 558
495 575
495 586
495 591
495 601
495 602
495 609
495 630
495 636
495 639
495 640
495 645
495 658
495 672
495 673
495 687
495 691
495 692
495 697
495 724
495 726
495 727
495 742
495 746
495 747
495 767
495 794
496 503
496 512
496 554
496 561
496 565
496 570
496 580
496 601
496 608
496 613
496 644
496 649
496 651
496 666
496 693
496 697
496 707
496 717
496 719
496 720
496 733
496 743
496 759
496 769
496 772
496 777
496 778
496 796
497 514
497 515
497 527
497 536
497 542
497 559
497 572
497 589
497 591
497 604
497 607
497 617
497 624
497 633
497 634
497 642
497 655
497 670
497 676
497 682
497 691
497 698
497 711
497 715
497 750
497 770
497 777
497 781
497 794
498 504
498 510
498 514
498 530
498 531
498 535
498 538
498 539
498 542
498 552
498 572
498 583
498 592
498 604
498 637
498 639
498 642
498 669
498 671
498 675
498 676
498 680
498 698
498 706
498 723
498 727
498 735
498 737
498 766
498 768
498 769
498 775
498 780
499 511
499 522
499 523
499 524
499 545
499 559
499 606
499 611
499 631
499 641
499 653
499 660
499 664
499 682
499 698
499 700
499 703
499 711
499 722
499 727
499 734
499 741
499 746
499 769
500 501
500 506
500 540
500 546
500 551
500 563
500 586
500 591
500 592
500 595
500 606
500 611
500 613
500 655
500 659
500 679
500 685
500 691
500 699
500 706
500 722
500 725
500 727
500 733
500 753
500 758
500 772
500 777
500 788
500 792
500 794
500 798
501 504
501 527
501 549
501 550
501 563
501 567
501 569
501 581
501 586
501 592
501 603
501 627
501 635
501 637
501 643
501 662
501 701
501 705
501 716
501 717
501 733
501 734
501 737
501 739
501 744
501 757
501 770
501 777
501 781
501 785
501 796
502 504
502 505
502 509
502 516
502 521
502 523
502 528
502 556
502 557
502 562
502 583
502 584
502 585
502 587
502 596
502 597
502 598
502 601
502 609
502 613
502 626
502 635
502 643
502 646
502 647
502 675
502 677
502 685
502 693
502 713
502 733
502 757
502 760
502 789
503 505
503 508
503 513
503 530
503 568
503 596
503 604
503 605
503 612
503 614
503 616
503 636
503 640
503 644
503 654
503 658
503 681
503 696
503 724
503 734
503 737
503 743
503 747
503 751
503 760
503 764
503 768
503 778
503 797
504 508
504 528
504 530
504 534
504 544
504 563
504 570
504 574
504 580
504 581
504 589
504 592
504 603
504 606
504 607
504 608
504 626
504 633
504 634
504 661
504 700
504 711
504 713
504 719
504 726
504 727
504 744
504 748
504 754
504 768
504 777
504 778
504 781
504 789
505 507
505 511
505 514
505 518
505 539
505 557
505 558
505 564
505 569
505 571
505 581
505 583
505 598
505 611
505 624
505 641
505 647
505 683
505 685
505 692
505 694
505 703
505 730
505 739
505 743
505 745
505 753
505 757
505 758
505 769
505 777
505 792
505 795
505 796
506 519
506 554
506 615
506 623
506 625
506 633
506 642
506 657
506 660
506 661
506 673
506 674
506 676
506 692
506 695
506 719
506 759
506 766
506 777
506 779
507 509
507 530
507 533
507 547
507 554
507 559
507 561
507 589
507 593
507 604
507 623
507 664
507 687
507 693
507 715
507 716
507 742
507 747
507 756
507 780
507 784
507 792
507 799
508 516
508 526
508 534
508 539
508 543
508 553
508 556
508 558
508 564
508 584
508 622
508 648
508 649
508 660
508 672
508 676
508 692
508 694
508 696
508 707
508 709
508 718
508 720
508 726
508 727
508 752
508 756
508 768
508 780
508 782
508 786
508 789
509 513
509 521
509 523
509 529
509 532
509 545
509 546
509 550
509 551
509 558
509 559
509 587
509 589
509 599
509 622
509 624
509 628
509 635
509 659
509 678
509 685
509 692
509 698
509 702
509 703
509 706
509 709
509 717
509 719
509 736
509 746
509 763
509 765
509 768
509 775
509 776
509 782
509 786
509 788
509 798
510 514
510 516
510 530
510 551
510 555
510 571
510 577
510 589
510 610
510 621
510 632
510 640
510 645
510 651
510 668
510 706
510 726
510 739
510 747
510 759
510 774
510 791
510 792
510 798
511 555
511 564
511 571
511 572
511 576
511 578
511 580
511 587
511 589
511 596
511 604
511 608
511 639
511 648
511 674
511 695
511 717
511 731
511 732
511 744
511 747
511 749
511 757
511 781
511 784
511 786
512 518
512 524
512 532
512 562
512 564
512 567
512 578
512 582
512 595
512 615
512 618
512 626
512 651
512 686
512 691
512 692
512 699
512 734
512 738
512 755
512 757
512 767
512 770
512 775
512 782
512 786
512 789
512 792
512 1478
513 530
513 531
513 535
513 553
513 576
513 586
513 598
513 610
513 621
513 628
513 631
513 642
513 654
513 660
513 666
513 667
513 669
513 691
513 699
513 704
513 713
513 724
513 725
513 733
513 746
513 750
513 756
513 757
513 760
513 774
513 790
514 516
514 533
514 536
514 544
514 549
514 553
514 555
514 582
514 584
514 585
514 590
514 621
514 639
514 649
514 658
514 660
514 681
514 688
514 699
514 705
514 713
514 715
514 716
514 720
514 730
514 735
514 749
514 766
514 776
514 778
514 798
514 799
515 523
515 528
515 537
515 540
515 545
515 556
515 564
515 578
515 590
515 626
515 628
515 636
515 645
515 654
515 667
515 668
515 669
515 684
515 698
515 703
515 727
515 734
515 735
515 736
515 762
515 775
515 776
515 779
515 799
516 527
516 528
516 531
516 533
516 545
516 553
516 554
516 594
516 599
516 600
516 601
516 605
516 620
516 622
516 624
516 638
516 649
516 651
516 660
516 691
516 703
516 737
516 744
516 746
516 755
516 759
516 776
516 782
516 792
516 795
516 1859
517 526
517 530
517 540
517 543
517 547
517 592
517 594
517 596
517 607
517 616
517 646
517 648
517 653
517 656
517 660
517 677
517 685
517 709
517 710
517 725
517 733
517 734
517 757
517 765
517 767
517 774
517 775
517 788
517 797
518 530
518 532
518 540
518 549
518 559
518 568
518 569
518 572
518 580
518 583
518 617
518 628
518 633
518 634
518 666
518 673
518 675
518 680
518 685
518 692
518 694
518 707
518 709
518 711
518 723
518 724
518 725
518 736
518 756
518 777
518 793
519 526
519 537
519 541
519 549
519 550
519 558
519 561
519 570
519 583
519 590
519 598
519 627
519 647
519 654
519 659
519 667
519 672
519 684
519 755
519 771
519 778
519 783
519 798
520 527
520 533
520 618
520 628
520 634
520 641
520 658
520 667
520 678
520 684
520 685
520 695
520 701
520 721
520 729
520 733
520 749
520 761
520 782
520 790
520 791
520 793
520 796
520 797
520 799
521 529
521 541
521 547
521 561
521 564
521 567
521 575
521 576
521 584
521 586
521 590
521 613
521 630
521 640
521 654
521 659
521 664
521 666
521 685
521 699
521 710
521 714
521 715
521 730
521 735
521 738
521 744
521 750
521 756
521 758
521 763
521 771
521 773
521 792
521 797
522 530
522 534
522 535
522 538
522 573
522 574
522 578
522 593
522 597
522 598
522 603
522 610
522 620
522 625
522 627
522 657
522 665
522 679
522 684
522 689
522 708
522 733
522 746
522 761
522 762
522 771
522 776
523 526
523 529
523 541
523 577
523 582
523 609
523 617
523 650
523 653
523 657
523 659
523 663
523 672
523 675
523 693
523 724
523 730
523 737
523 739
523 741
523 772
523 776
523 788
523 791
523 792
523 795
523 797
524 535
524 595
524 599
524 600
524 603
524 610
524 628
524 642
524 647
524 653
524 654
524 657
524 665
524 677
524 699
524 723
524 744
524 748
524 783
524 786
524 791
525 527
525 529
525 531
525 562
525 571
525 573
525 586
525 607
525 614
525 640
525 643
525 648
525 670
525 671
525 684
525 711
525 719
525 727
525 738
525 739
525 779
525 789
525 797
526 531
526 538
526 548
526 564
526 582
526 593
526 606
526 614
526 630
526 631
526 650
526 696
526 707
526 709
526 729
526 735
526 765
526 777
526 778
526 786
526 787
526 788
526 789
526 795
526 796
527 531
527 544
527 550
527 558
527 564
527 567
527 583
527 588
527 597
527 605
527 607
527 608
527 616
527 637
527 640
527 659
527 668
527 687
527 696
527 701
527 714
527 716
527 720
527 743
527 748
527 754
527 757
527 767
527 771
527 775
527 777
527 788
528 537
528 546
528 551
528 559
528 560
528 570
528 571
528 605
528 610
528 624
528 632
528 643
528 661
528 664
528 698
528 703
528 711
528 712
528 719
528 728
528 755
528 758
528 759
528 763
528 790
529 559
529 568
529 618
529 625
529 632
529 636
529 660
529 663
529 666
529 691
529 706
529 729
529 734
529 737
529 750
529 751
529 752
529 756
530 531
530 544
530 547
530 557
530 558
530 570
530 573
530 583
530 594
530 624
530 634
530 637
530 641
530 648
530 658
530 668
530 679
530 688
530 696
530 712
530 727
530 744
530 765
530 774
530 790
530 793
531 542
531 596
531 602
531 618
531 621
531 622
531 631
531 658
531 676
531 679
531 680
531 681
531 700
531 713
531 714
531 725
531 730
531 741
531 751
531 756
531 761
531 763
531 768
531 770
531 773
531 775
531 778
532 540
532 544
532 548
532 555
532 562
532 571
532 605
532 614
532 617
532 654
532 656
532 675
532 680
532 685
532 688
532 718
532 721
532 722
532 762
532 764
532 795
533 534
533 543
533 600
533 612
533 628
533 635
533 646
533 657
533 675
533 678
533 692
533 738
533 739
533 744
533 746
533 766
533 771
533 772
533 795
533 797
534 546
534 550
534 552
534 583
534 593
534 594
534 608
534 618
534 621
534 629
534 638
534 649
534 652
534 665
534 667
534 669
534 672
534 679
534 690
534 693
534 700
534 707
534 711
534 725
534 732
534 735
534 740
534 770
534 791
534 807
535 537
535 551
535 555
535 562
535 601
535 608
535 609
535 629
535 630
535 633
535 657
535 663
535 669
535 676
535 682
535 698
535 700
535 704
535 707
535 718
535 728
535 730
535 734
535 737
535 764
535 770
535 773
535 791
535 794
536 540
536 581
536 595
536 602
536 609
536 615
536 619
536 624
536 627
536 634
536 638
536 654
536 657
536 661
536 665
536 671
536 673
536 674
536 676
536 677
536 681
536 691
536 692
536 722
536 726
536 728
536 730
536 753
536 761
536 768
536 792
536 795
537 538
537 586
537 588
537 602
537 603
537 617
537 626
537 634
537 651
537 654
537 657
537 658
537 666
537 672
537 687
537 688
537 712
537 726
537 744
537 754
537 761
537 763
537 776
537 780
537 791
537 796
538 549
538 550
538 576
538 578
538 589
538 601
538 609
538 624
538 641
538 654
538 660
538 669
538 673
538 674
538 676
538 695
538 710
538 711
538 725
538 729
538 730
538 734
538 764
538 767
538 772
538 792
538 795
538 1840
539 543
539 549
539 571
539 576
539 586
539 593
539 597
539 620
539 631
539 637
539 640
539 654
539 661
539 662
539 664
539 687
539 690
539 705
539 713
539 716
539 718
539 743
539 754
539 758
539 765
539 773
539 774
539 778
539 798
540 559
540 567
540 576
540 578
540 586
540 592
540 597
540 623
540 633
540 645
540 657
540 675
540 683
540 693
540 704
540 708
540 711
540 719
540 731
540 736
540 738
540 740
540 750
540 751
540 764
540 778
541 544
541 552
541 561
541 594
541 598
541 602
541 615
541 617
541 620
541 628
541 629
541 634
541 640
541 651
541 657
541 662
541 664
541 665
541 667
541 694
541 702
541 713
541 716
541 726
541 730
541 756
541 764
541 769
541 778
541 796
541 797
542 551
542 570
542 572
542 585
542 587
542 611
542 616
542 631
542 644
542 652
542 660
542 666
542 667
542 687
542 690
542 700
542 702
542 751
542 767
542 771
542 798
543 551
543 608
543 609
543 621
543 623
543 639
543 647
543 650
543 658
543 668
543 683
543 686
543 713
543 721
543 727
543 728
543 744
543 747
543 756
543 778
544 552
544 572
544 579
544 580
544 591
544 605
544 610
544 612
544 659
544 670
544 685
544 701
544 703
544 706
544 713
544 717
544 742
544 743
544 755
544 762
544 767
544 778
544 779
544 781
544 795
544 796
545 555
545 563
545 572
545 578
545 584
545 587
545 593
545 599
545 605
545 606
545 612
545 619
545 623
545 645
545 650
545 653
545 662
545 664
545 677
545 679
545 683
545 698
545 700
545 705
545 710
545 711
545 716
545 729
545 731
545 737
545 739
545 790
546 563
546 573
546 579
546 584
546 608
546 611
546 617
546 627
546 641
546 642
546 650
546 651
546 663
546 668
546 673
546 693
546 712
546 717
546 728
546 737
546 738
546 739
546 740
546 741
546 746
546 750
546 759
546 760
546 768
546 783
546 790
546 794
547 548
547 553
547 560
547 566
547 567
547 572
547 579
547 586
547 593
547 599
547 600
547 624
547 627
547 636
547 646
547 659
547 666
547 669
547 692
547 694
547 697
547 706
547 712
547 720
547 728
547 735
547 736
547 757
547 759
547 770
547 785
547 794
548 569
548 575
548 580
548 617
548 618
548 619
548 621
548 632
548 681
548 684
548 689
548 694
548 729
548 746
548 747
548 760
548 778
548 780
548 796
549 561
549 582
549 583
549 588
549 593
549 594
549 604
549 608
549 612
549 628
549 663
549 681
549 691
549 702
549 716
549 717
549 729
549 731
549 737
549 746
549 754
549 768
549 781
549 786
549 794
550 569
550 574
550 576
550 584
550 591
550 598
550 599
550 603
550 613
550 617
550 629
550 641
550 643
550 652
550 666
550 673
550 681
550 691
550 728
550 733
550 741
550 754
550 758
550 764
550 770
550 789
550 792
550 796
551 579
551 595
551 628
551 629
551 635
551 641
551 642
551 655
551 663
551 666
551 674
551 686
551 695
551 698
551 718
551 728
551 731
551 734
551 738
551 754
551 760
551 762
551 764
551 775
551 780
551 782
552 560
552 589
552 595
552 606
552 611
552 615
552 632
552 641
552 646
552 650
552 681
552 688
552 691
552 704
552 718
552 724
552 731
552 734
552 739
552 748
552 759
553 571
553 579
553 584
553 590
553 604
553 618
553 621
553 635
553 646
553 654
553 673
553 696
553 705
553 710
553 720
553 737
553 751
553 753
553 757
553 759
553 760
553 775
553 784
553 792
554 559
554 565
554 568
554 571
554 572
554 586
554 587
554 601
554 602
554 619
554 622
554 641
554 650
554 657
554 667
554 670
554 693
554 703
554 718
554 727
554 736
554 739
554 746
554 747
554 750
554 754
554 758
554 773
554 784
554 787
554 797
555 558
555 561
555 562
555 575
555 580
555 582
555 583
555 588
555 595
555 616
555 617
555 628
555 632
555 639
555 668
555 675
555 676
555 687
555 688
555 703
555 720
555 740
555 754
555 758
555 762
555 767
555 769
555 772
555 773
555 785
555 786
555 789
555 794
556 579
556 588
556 589
556 595
556 611
556 612
556 626
556 628
556 653
556 655
556 657
556 673
556 686
556 697
556 706
556 722
556 735
556 796
557 564
557 565
557 571
557 583
557 588
557 599
557 600
557 607
557 615
557 635
557 642
557 663
557 664
557 669
557 675
557 678
557 680
557 699
557 700
557 712
557 714
557 723
557 728
557 731
557 746
557 754
557 776
557 779
557 787
558 567
558 568
558 570
558 597
558 605
558 614
558 624
558 632
558 651
558 678
558 689
558 698
558 715
558 716
558 729
558 733
558 761
558 778
558 779
559 561
559 564
559 571
559 611
559 627
559 630
559 666
559 702
559 714
559 717
559 726
559 744
559 768
559 772
560 563
560 571
560 580
560 584
560 594
560 603
560 605
560 617
560 630
560 673
560 691
560 694
560 707
560 715
560 716
560 735
560 736
560 742
560 751
560 764
560 773
560 778
560 797
560 798
561 564
561 568
561 579
561 598
561 600
561 601
561 615
561 619
561 663
561 666
561 671
561 672
561 677
561 695
561 701
561 709
561 725
561 739
561 743
561 744
561 757
561 787
562 563
562 570
562 581
562 594
562 606
562 625
562 665
562 680
562 684
562 699
562 712
562 713
562 714
562 724
562 754
562 776
562 791
563 575
563 577
563 589
563 595
563 608
563 645
563 646
563 653
563 657
563 667
563 668
563 672
563 676
563 685
563 696
563 697
563 704
563 733
563 737
563 748
563 752
563 753
563 761
563 792
564 571
564 576
564 581
564 583
564 595
564 598
564 604
564 609
564 612
564 613
564 618
564 643
564 666
564 672
564 684
564 711
564 720
564 733
564 742
564 743
564 758
564 761
564 762
564 788
564 790
564 792
565 569
565 571
565 579
565 588
565 589
565 597
565 602
565 608
565 611
565 616
565 628
565 633
565 645
565 649
565 654
565 661
565 663
565 670
565 679
565 692
565 696
565 704
565 709
565 713
565 717
565 727
565 729
565 734
565 737
565 747
565 757
565 771
565 787
565 788
565 798
565 799
566 576
566 606
566 613
566 633
566 659
566 660
566 667
566 684
566 691
566 694
566 704
566 718
566 720
566 725
566 758
566 759
566 781
566 785
566 791
566 797
567 574
567 584
567 587
567 596
567 603
567 604
567 624
567 626
567 648
567 649
567 650
567 664
567 670
567 680
567 683
567 707
567 734
567 758
567 772
567 783
568 569
568 580
568 582
568 590
568 610
568 611
568 615
568 618
568 629
568 634
568 637
568 657
568 659
568 668
568 678
568 696
568 701
568 719
568 727
568 734
568 749
568 763
568 778
568 795
569 570
569 576
569 577
569 578
569 595
569 598
569 599
569 602
569 660
569 663
569 667
569 683
569 689
569 701
569 705
569 712
569 729
569 748
569 761
569 762
569 788
569 797
569 1183
570 577
570 602
570 604
570 612
570 613
570 635
570 644
570 648
570 653
570 658
570 671
570 678
570 680
570 686
570 698
570 718
570 764
570 771
570 774
570 776
570 777
570 781
570 794
571 573
571 586
571 587
571 594
571 603
571 609
571 621
571 624
571 629
571 644
571 646
571 661
571 667
571 673
571 676
571 688
571 695
571 709
571 711
571 716
571 737
571 750
571 751
571 760
571 774
571 793
571 799
572 579
572 583
572 585
572 589
572 602
572 608
572 624
572 629
572 631
572 637
572 640
572 665
572 666
572 675
572 681
572 685
572 720
572 722
572 724
572 754
572 791
572 792
572 797
573 575
573 576
573 585
573 594
573 622
573 625
573 632
573 636
573 640
573 649
573 670
573 678
573 681
573 702
573 711
573 719
573 752
573 769
573 774
573 783
573 786
573 787
573 799
574 587
574 605
574 620
574 623
574 627
574 638
574 671
574 680
574 693
574 695
574 713
574 728
574 743
574 747
574 755
574 758
574 759
574 761
574 769
574 781
574 785
574 792
574 797
575 612
575 621
575 626
575 629
575 634
575 638
575 652
575 654
575 659
575 675
575 676
575 679
575 680
575 684
575 691
575 696
575 708
575 721
575 723
575 725
575 753
575 760
575 764
575 793
575 797
576 592
576 602
576 612
576 619
576 621
576 627
576 630
576 642
576 668
576 669
576 672
576 688
576 699
576 711
576 722
576 726
576 769
576 772
576 775
576 791
577 579
577 586
577 590
577 592
577 596
577 619
577 627
577 639
577 660
577 662
577 685
577 688
577 692
577 706
577 709
577 710
577 748
577 762
577 764
577 765
577 789
577 793
578 579
578 593
578 596
578 606
578 607
578 610
578 622
578 624
578 625
578 627
578 655
578 684
578 686
578 687
578 692
578 693
578 710
578 711
578 712
578 728
578 734
578 783
579 581
579 586
579 593
579 605
579 609
579 627
579 638
579 641
579 649
579 663
579 674
579 675
579 709
579 714
579 722
579 730
579 742
579 758
579 764
579 766
579 780
579 795
579 797
579 799
580 591
580 613
580 627
580 630
580 667
580 675
580 692
580 704
580 707
580 727
580 763
580 764
580 775
580 798
580 1320
581 585
581 604
581 623
581 649
581 661
581 680
581 688
581 689
581 696
581 704
581 706
581 709
581 710
581 713
581 716
581 722
581 724
581 736
581 752
581 755
581 756
581 760
581 763
581 787
581 791
581 794
582 592
582 618
582 624
582 660
582 665
582 679
582 693
582 694
582 716
582 722
582 724
582 726
582 733
582 746
582 754
582 760
582 763
582 779
582 793
582 1707
583 590
583 606
583 636
583 638
583 639
583 661
583 664
583 690
583 695
583 698
583 703
583 704
583 707
583 721
583 723
583 742
583 771
583 782
583 797
584 586
584 587
584 594
584 600
584 607
584 609
584 625
584 631
584 632
584 652
584 664
584 669
584 672
584 682
584 716
584 722
584 723
584 739
584 757
584 758
584 766
584 774
584 776
584 778
584 780
584 781
584 784
584 791
585 597
585 611
585 614
585 622
585 649
585 686
585 718
585 725
585 745
585 771
585 775
585 777
585 779
585 794
586 594
586 601
586 604
586 613
586 617
586 629
586 633
586 659
586 684
586 706
586 711
586 722
586 732
586 749
586 752
586 765
586 772
586 784
587 594
587 606
587 615
587 623
587 634
587 641
587 660
587 668
587 674
587 678
587 681
587 682
587 707
587 721
587 726
587 738
587 741
587 749
587 750
587 778
587 788
587 790
587 794
587 798
588 590
588 594
588 605
588 612
588 615
588 620
588 622
588 635
588 650
588 654
588 661
588 662
588 669
588 680
588 694
588 696
588 700
588 706
588 759
588 771
588 775
588 776
588 778
588 781
588 787
588 793
589 597
589 613
589 619
589 623
589 645
589 647
589 650
589 668
589 698
589 701
589 714
589 717
589 721
589 732
589 737
589 747
589 748
589 750
589 754
589 756
589 774
589 780
589 784
589 791
590 642
590 646
590 649
590 658
590 667
590 681
590 685
590 687
590 707
590 710
590 720
590 722
590 726
590 755
590 764
590 765
590 776
590 793
591 593
591 608
591 639
591 663
591 676
591 705
591 707
591 720
591 722
591 732
591 738
591 764
592 599
592 600
592 607
592 626
592 641
592 647
592 657
592 663
592 672
592 688
592 691
592 726
592 727
592 736
592 739
592 740
592 744
592 750
592 777
592 780
592 793
592 1095
593 595
593 622
593 625
593 630
593 632
593 633
593 670
593 677
593 679
593 683
593 685
593 690
593 709
593 711
593 716
593 721
593 741
593 746
593 751
593 755
593 762
593 769
593 771
593 772
593 776
594 595
594 596
594 599
594 602
594 612
594 631
594 633
594 634
594 653
594 663
594 695
594 726
594 729
594 746
594 753
594 778
594 788
595 612
595 615
595 619
595 622
595 642
595 649
595 651
595 674
595 675
595 687
595 690
595 692
595 701
595 705
595 708
595 717
595 718
595 719
595 721
595 735
595 743
595 746
595 747
595 759
596 597
596 603
596 610
596 633
596 637
596 638
596 646
596 650
596 658
596 659
596 664
596 671
596 673
596 691
596 694
596 695
596 706
596 731
596 755
596 765
596 783
596 790
597 610
597 613
597 632
597 636
597 638
597 647
597 653
597 666
597 676
597 682
597 687
597 721
597 724
597 734
597 749
597 752
597 754
597 762
597 773
597 788
597 793
597 795
598 599
598 605
598 606
598 610
598 630
598 631
598 642
598 650
598 656
598 672
598 677
598 678
598 681
598 691
598 694
598 705
598 709
598 713
598 722
598 729
598 735
598 737
598 742
598 751
598 753
598 763
598 774
598 776
598 779
598 785
599 604
599 609
599 617
599 623
599 624
599 659
599 669
599 671
599 673
599 682
599 686
599 690
599 697
599 698
599 703
599 704
599 708
599 714
599 721
599 722
599 736
599 738
599 741
599 754
599 755
599 772
599 781
600 601
600 602
600 610
600 625
600 633
600 639
600 640
600 668
600 669
600 670
600 713
600 721
600 726
600 729
600 744
600 763
600 773
600 794
600 797
601 602
601 605
601 612
601 616
601 632
601 648
601 650
601 651
601 662
601 665
601 669
601 685
601 690
601 692
601 693
601 694
601 713
601 729
601 732
601 737
601 739
601 747
601 755
601 757
601 762
601 770
601 791
602 605
602 611
602 634
602 643
602 644
602 652
602 664
602 666
602 679
602 682
602 694
602 696
602 709
602 732
602 736
602 751
602 755
602 771
602 780
603 611
603 653
603 667
603 709
603 712
603 717
603 734
603 742
603 762
603 765
603 784
603 791
603 1480
604 611
604 624
604 628
604 630
604 637
604 651
604 655
604 666
604 675
604 688
604 706
604 708
604 726
604 753
604 761
604 772
604 775
604 785
604 795
605 607
605 637
605 638
605 642
605 651
605 663
605 688
605 694
605 695
605 702
605 717
605 727
605 730
605 741
605 743
605 751
605 756
605 786
605 792
606 627
606 643
606 672
606 688
606 691
606 699
606 700
606 719
606 733
606 743
606 762
606 763
606 765
606 782
606 784
606 786
606 789
606 792
607 613
607 622
607 633
607 645
607 647
607 650
607 686
607 698
607 701
607 706
607 709
607 717
607 725
607 731
607 751
607 753
607 763
607 766
607 774
607 781
607 782
607 794
607 795
608 615
608 619
608 625
608 654
608 658
608 661
608 673
608 683
608 700
608 701
608 722
608 729
608 733
608 743
608 756
608 767
608 771
608 774
608 787
609 614
609 633
609 636
609 638
609 642
609 662
609 683
609 694
609 695
609 700
609 708
609 720
609 729
609 748
609 760
609 779
609 780
609 786
609 792
609 795
610 618
610 625
610 633
610 644
610 664
610 665
610 684
610 695
610 701
610 726
610 727
610 728
610 729
610 746
610 750
610 758
610 760
610 763
610 777
610 780
610 782
610 795
611 618
611 641
611 642
611 649
611 675
611 676
611 689
611 690
611 692
611 699
611 701
611 724
611 737
611 739
611 741
611 754
611 769
611 771
611 778
611 792
612 620
612 623
612 627
612 638
612 652
612 655
612 659
612 673
612 687
612 689
612 691
612 692
612 693
612 694
612 701
612 705
612 706
612 708
612 728
612 757
612 791
612 1672
613 624
613 656
613 661
613 672
613 674
613 675
613 682
613 688
613 691
613 702
613 711
613 732
613 739
613 741
613 746
613 748
613 755
613 762
613 787
614 617
614 659
614 672
614 673
614 680
614 690
614 694
614 696
614 730
614 731
614 735
614 741
614 754
614 763
614 776
614 779
614 781
614 783
614 794
615 618
615 631
615 635
615 640
615 647
615 654
615 658
615 674
615 680
615 696
615 712
615 724
615 738
615 746
615 762
615 773
615 776
615 787
616 624
616 664
616 667
616 683
616 690
616 693
616 707
616 708
616 722
616 723
616 742
616 756
616 760
616 763
616 771
616 780
616 793
616 797
617 623
617 625
617 630
617 643
617 648
617 654
617 683
617 690
617 696
617 718
617 721
617 723
617 726
617 733
617 751
617 762
617 778
617 779
617 785
617 788
618 624
618 675
618 682
618 683
618 685
618 706
618 712
618 715
618 737
618 755
618 790
618 1207
619 626
619 629
619 641
619 690
619 694
619 763
619 789
619 796
620 622
620 645
620 663
620 676
620 683
620 697
620 737
620 754
620 773
620 785
621 625
621 688
621 709
621 714
621 726
621 740
621 744
621 746
621 755
621 766
621 772
621 778
621 799
622 667
622 672
622 677
622 678
622 696
622 697
622 705
622 709
622 711
622 719
622 721
622 723
622 726
622 745
622 757
622 762
622 770
622 774
622 782
622 783
622 786
622 797
623 639
623 640
623 658
623 660
623 665
623 690
623 721
623 727
623 730
623 735
623 742
623 745
623 755
623 756
623 792
624 626
624 632
624 639
624 640
624 647
624 653
624 657
624 661
624 674
624 678
624 681
624 682
624 685
624 689
624 696
624 697
624 705
624 722
624 728
624 729
624 737
624 738
624 742
624 748
624 756
624 759
624 763
624 783
624 788
625 640
625 653
625 656
625 705
625 720
625 725
625 731
625 740
625 755
625 764
625 765
625 773
625 776
625 781
626 629
626 646
626 651
626 674
626 696
626 710
626 711
626 739
626 742
626 744
626 771
627 660
627 661
627 672
627 695
627 697
627 704
627 705
627 709
627 712
627 714
627 720
627 771
627 779
628 633
628 635
628 661
628 673
628 674
628 691
628 709
628 715
628 718
628 721
628 742
628 755
628 782
629 632
629 639
629 652
629 659
629 661
629 663
629 670
629 672
629 675
629 676
629 678
629 686
629 691
629 695
629 703
629 729
629 735
629 766
629 771
629 782
630 634
630 637
630 654
630 658
630 667
630 682
630 685
630 695
630 705
630 718
630 719
630 720
630 739
630 741
630 748
630 753
630 761
630 767
630 782
630 786
630 789
631 640
631 642
631 645
631 653
631 657
631 669
631 670
631 690
631 692
631 699
631 701
631 702
631 710
631 717
631 720
631 730
631 732
631 745
631 763
631 773
631 775
631 781
631 784
631 787
631 793
632 633
632 656
632 677
632 682
632 683
632 685
632 696
632 703
632 751
632 767
632 785
632 787
632 789
632 909
633 640
633 652
633 653
633 668
633 670
633 675
633 705
633 713
633 716
633 724
633 726
633 727
633 733
633 767
633 777
634 635
634 651
634 657
634 663
634 664
634 667
634 674
634 675
634 697
634 715
634 718
634 747
634 750
634 751
634 759
634 782
635 649
635 654
635 655
635 663
635 664
635 684
635 687
635 691
635 698
635 705
635 708
635 716
635 742
635 747
635 749
635 750
635 766
635 771
635 782
635 785
635 799
636 652
636 662
636 674
636 685
636 688
636 695
636 696
636 704
636 716
636 717
636 748
636 751
636 771
636 775
637 645
637 647
637 648
637 649
637 656
637 668
637 686
637 691
637 693
637 712
637 753
637 763
637 779
637 790
637 796
638 647
638 669
638 677
638 678
638 679
638 711
638 712
638 713
638 746
638 754
638 760
638 792
639 659
639 660
639 675
639 680
639 714
639 717
639 725
639 776
639 777
639 782
639 785
639 791
640 646
640 651
640 677
640 680
640 705
640 706
640 707
640 717
640 719
640 721
640 726
640 727
640 731
640 734
640 735
640 736
640 737
640 772
640 776
641 650
641 662
641 663
641 671
641 677
641 678
641 679
641 681
641 701
641 714
641 719
641 722
641 745
641 748
641 759
641 782
641 793
642 643
642 650
642 675
642 677
642 683
642 692
642 701
642 710
642 731
642 736
642 744
642 747
642 765
643 655
643 661
643 692
643 696
643 705
643 730
643 732
643 734
643 741
643 759
643 769
643 771
643 789
643 790
643 796
643 1663
644 655
644 662
644 670
644 680
644 682
644 684
644 692
644 693
644 695
644 697
644 723
644 726
644 749
644 778
644 785
644 793
645 650
645 676
645 680
645 694
645 708
645 717
645 737
645 741
645 746
645 757
645 778
645 779
645 788
645 789
645 792
646 656
646 657
646 680
646 685
646 710
646 713
646 714
646 726
646 729
646 736
646 747
646 764
646 770
646 778
646 786
646 790
646 876
647 649
647 660
647 667
647 678
647 682
647 684
647 685
647 703
647 717
647 739
647 742
647 758
647 775
647 792
647 795
648 652
648 656
648 690
648 707
648 728
648 735
648 744
648 770
648 771
648 772
648 778
648 785
648 786
648 794
648 798
649 685
649 691
649 713
649 717
649 719
649 720
649 734
649 741
649 756
649 762
649 763
649 767
649 799
650 654
650 658
650 667
650 668
650 677
650 680
650 683
650 706
650 719
650 720
650 737
650 743
650 772
650 773
650 776
650 791
650 793
650 794
651 654
651 657
651 661
651 677
651 680
651 688
651 695
651 696
651 703
651 705
651 716
651 732
651 736
651 737
651 743
651 753
651 775
651 784
651 799
652 655
652 660
652 680
652 692
652 696
652 702
652 711
652 727
652 736
652 747
652 789
653 654
653 655
653 692
653 693
653 696
653 723
653 729
653 731
653 737
653 745
653 755
653 764
653 771
653 774
653 776
653 777
653 778
653 782
653 795
653 798
654 683
654 685
654 687
654 689
654 695
654 699
654 702
654 709
654 725
654 733
654 747
654 749
654 753
654 758
654 760
654 763
654 774
654 779
654 787
654 1540
655 656
655 661
655 666
655 669
655 689
655 702
655 719
655 751
655 764
655 765
655 773
655 775
655 778
655 784
655 790
656 662
656 664
656 698
656 708
656 727
656 734
656 737
656 747
656 749
656 758
656 771
656 772
656 785
656 787
657 682
657 686
657 691
657 698
657 714
657 721
657 722
657 753
657 762
657 775
657 789
658 674
658 680
658 703
658 709
658 720
658 724
658 730
658 739
658 745
658 750
658 759
658 767
658 778
658 787
658 797
658 1281
659 670
659 677
659 681
659 683
659 684
659 699
659 707
659 709
659 713
659 717
659 718
659 724
659 728
659 745
659 750
659 753
659 761
659 771
659 775
659 780
659 794
660 664
660 665
660 674
660 686
660 688
660 691
660 693
660 696
660 726
660 745
660 749
660 751
660 756
660 778
660 783
660 794
661 664
661 665
661 676
661 683
661 686
661 698
661 714
661 721
661 724
661 729
661 733
661 736
661 737
661 743
661 765
662 669
662 673
662 675
662 680
662 705
662 733
662 744
662 750
662 753
662 782
662 785
662 787
662 790
663 674
663 688
663 702
663 707
663 717
663 722
663 726
663 727
663 746
663 763
663 766
663 774
663 782
663 790
663 792
664 666
664 685
664 689
664 701
664 707
664 708
664 716
664 722
664 725
664 727
664 729
664 730
664 735
664 739
664 740
664 742
664 750
664 765
664 769
664 778
664 780
664 783
665 670
665 678
665 679
665 684
665 711
665 715
665 725
665 747
665 751
665 752
665 769
665 778
665 792
666 670
666 672
666 691
666 700
666 736
666 769
666 785
666 790
666 795
667 675
667 677
667 682
667 707
667 724
667 739
667 763
667 771
667 776
667 780
667 783
667 793
667 795
668 674
668 675
668 678
668 729
668 732
668 740
668 744
668 760
668 772
668 774
668 787
668 797
669 681
669 689
669 706
669 708
669 716
669 737
669 747
669 762
669 763
669 782
669 795
670 677
670 702
670 716
670 721
670 728
670 746
670 758
670 773
670 776
670 796
671 674
671 679
671 684
671 704
671 707
671 709
671 729
671 735
671 738
671 741
671 747
671 768
671 776
671 783
671 789
671 794
672 675
672 679
672 686
672 690
672 708
672 710
672 719
672 723
672 734
672 736
672 742
672 745
672 747
672 771
672 781
672 783
672 787
672 788
672 789
673 677
673 678
673 680
673 685
673 692
673 696
673 698
673 705
673 716
673 720
673 740
673 746
673 765
673 774
673 786
673 793
673 794
673 795
674 684
674 692
674 696
674 699
674 702
674 708
674 717
674 722
674 723
674 724
674 727
674 742
674 746
674 768
674 772
674 784
674 797
674 799
674 1940
675 708
675 724
675 733
675 744
675 788
676 679
676 700
676 702
676 711
676 730
676 732
676 747
676 767
676 768
676 790
677 690
677 706
677 710
677 733
677 769
677 770
677 774
677 785
677 795
678 679
678 691
678 707
678 729
678 732
678 736
678 748
678 764
678 775
678 776
678 786
678 790
679 686
679 693
679 705
679 746
679 770
679 775
679 786
679 792
680 691
680 692
680 695
680 708
680 710
680 715
680 720
680 763
680 778
680 780
680 781
680 782
681 699
681 702
681 707
681 719
681 721
681 729
681 732
681 752
681 759
681 780
681 785
681 793
681 796
681 797
682 688
682 689
682 690
682 694
682 697
682 700
682 722
682 724
682 730
682 744
682 756
682 760
682 768
682 790
682 793
683 685
683 692
683 705
683 710
683 723
683 731
683 732
683 735
683 737
683 747
683 748
683 763
683 764
683 777
683 784
684 691
684 695
684 697
684 700
684 705
684 720
684 727
684 734
684 735
684 771
684 797
685 713
685 721
685 723
685 728
685 744
685 747
685 751
685 758
685 760
685 767
685 792
685 798
686 698
686 719
686 721
686 725
686 727
686 733
686 736
686 739
686 741
686 745
686 759
686 775
686 789
687 698
687 701
687 703
687 716
687 730
687 734
687 741
687 748
687 753
687 754
687 755
687 776
687 780
687 783
688 695
688 696
688 704
688 712
688 732
688 748
688 753
688 754
688 758
688 771
688 772
688 790
688 796
689 698
689 705
689 714
689 720
689 735
689 738
689 740
689 745
689 761
689 764
689 768
689 774
689 779
689 792
689 1380
690 700
690 712
690 716
690 724
690 725
690 749
690 750
690 777
690 792
690 796
691 700
691 710
691 712
691 713
691 760
691 761
691 778
691 789
691 791
691 793
691 795
691 798
691 1419
692 708
692 732
692 745
692 753
692 757
692 764
692 771
692 774
693 705
693 707
693 711
693 721
693 732
693 750
693 754
693 764
693 766
693 784
693 787
693 790
693 869
693 1453
694 708
694 709
694 711
694 730
694 752
694 777
694 789
694 793
695 706
695 717
695 728
695 743
695 744
695 745
695 759
695 760
695 770
695 781
695 782
695 783
695 789
695 794
696 703
696 713
696 735
696 751
696 752
696 754
696 763
696 765
696 767
696 772
696 781
696 784
696 796
696 797
696 799
696 1160
697 704
697 706
697 716
697 718
697 760
697 764
697 770
697 771
697 780
697 788
697 1499
698 702
698 707
698 715
698 731
698 746
698 768
698 783
698 786
698 790
698 1970
699 701
699 706
699 708
699 709
699 726
699 765
699 778
699 785
699 792
700 722
700 731
700 744
700 750
700 752
700 760
700 764
700 768
700 770
700 777
700 778
700 781
701 709
701 722
701 723
701 725
701 728
701 744
701 749
701 752
701 760
701 769
701 770
701 772
701 774
701 785
702 713
702 727
702 728
702 733
702 736
702 742
702 746
702 751
702 753
702 754
702 763
702 771
702 774
702 798
702 799
703 723
703 726
703 736
703 741
703 744
703 758
703 776
703 785
703 787
703 797
704 727
704 747
704 754
704 756
704 766
704 782
704 1042
705 710
705 734
705 737
705 754
705 782
705 785
705 792
706 709
706 712
706 717
706 723
706 731
706 732
706 745
706 760
706 763
706 770
706 774
707 709
707 720
707 747
707 749
707 759
707 794
707 795
707 797
707 799
708 727
708 740
708 744
708 757
708 761
708 769
708 771
708 782
708 783
708 787
708 789
709 730
709 743
709 767
709 768
709 776
709 794
709 796
709 799
710 713
710 752
710 755
710 762
710 769
710 770
710 771
710 780
710 784
710 791
711 712
711 751
711 757
711 761
711 778
711 781
711 789
712 715
712 732
712 741
712 762
712 774
712 776
712 792
712 794
712 799
713 719
713 721
713 730
713 735
713 754
713 755
713 766
713 769
713 778
714 719
714 724
714 742
714 746
714 751
714 757
714 758
714 790
714 791
715 753
715 770
715 781
715 786
715 790
715 794
716 717
716 722
716 734
716 737
716 743
716 755
716 759
716 764
716 773
716 775
716 789
716 795
716 799
717 732
717 756
717 759
718 741
718 753
718 756
718 759
718 765
718 783
718 788
718 790
718 799
719 758
719 759
719 767
719 784
720 721
720 724
720 726
720 729
720 734
720 740
720 783
720 794
720 795
721 729
721 748
721 749
722 728
722 743
722 745
722 752
722 756
722 762
722 770
722 777
722 778
722 780
722 798
722 1535
723 728
723 735
723 755
723 761
723 767
723 771
723 793
723 795
724 730
724 734
724 735
724 740
724 753
724 793
724 795
724 797
725 757
725 778
725 783
725 786
725 789
726 733
726 738
726 742
726 743
726 755
726 757
726 764
726 766
726 767
726 775
726 782
726 783
726 1224
727 729
727 730
727 753
727 759
727 767
727 772
727 775
727 779
727 781
728 730
728 748
728 749
728 758
728 759
728 762
728 790
729 740
729 742
729 749
729 750
729 763
729 765
729 783
729 787
729 788
730 731
730 735
730 738
730 748
730 750
730 754
730 762
730 763
730 764
730 780
730 784
731 742
731 748
731 751
731 765
731 768
731 777
731 779
731 785
732 741
732 742
732 781
733 750
733 765
733 769
733 780
733 784
734 745
734 761
734 765
734 772
734 777
734 782
734 790
734 793
735 769
735 773
735 779
735 781
736 743
736 744
736 750
736 760
736 789
736 795
736 1372
737 744
737 750
737 751
737 761
737 766
737 782
737 783
737 797
737 799
738 740
738 743
738 752
738 766
738 798
738 799
739 742
739 778
739 781
739 783
740 743
740 758
740 760
740 782
740 794
741 745
741 746
741 755
741 757
741 776
741 787
741 793
742 758
742 775
742 776
743 761
743 781
743 782
743 783
743 784
743 792
744 745
744 752
744 767
744 771
744 774
744 780
744 790
744 793
745 749
745 752
745 763
746 748
746 753
746 799
747 749
747 751
747 769
747 780
747 786
748 749
748 753
748 765
748 773
748 779
748 780
748 789
748 792
749 751
749 752
749 756
749 760
749 773
749 775
749 781
749 784
749 798
750 753
750 766
750 769
750 775
750 791
750 1096
751 761
751 766
751 772
751 776
751 779
751 793
752 760
752 764
752 768
752 776
753 754
753 759
753 761
753 764
753 767
753 781
753 785
753 791
754 763
754 782
754 1520
755 764
755 773
755 774
755 780
755 795
755 798
755 799
756 760
757 759
757 769
757 776
757 797
757 1689
758 783
758 787
758 1762
759 766
759 772
759 773
759 780
760 764
760 770
760 797
761 779
761 780
761 789
761 795
761 796
762 783
762 796
763 775
763 791
763 792
764 767
764 769
764 771
764 777
764 792
764 796
764 1936
765 766
765 772
765 775
765 777
765 780
765 796
765 797
766 768
766 780
766 784
766 789
766 797
767 783
768 773
768 777
768 786
768 793
768 796
769 773
769 780
769 790
769 791
769 797
770 780
770 796
771 777
771 778
771 792
772 780
772 782
772 792
773 783
774 786
775 784
775 789
776 778
776 792
776 797
776 799
777 793
778 782
778 788
778 799
779 786
780 782
780 783
780 796
780 797
781 785
781 794
781 799
782 790
782 791
782 793
782 796
783 797
784 796
786 790
786 794
787 790
788 789
789 790
789 796
791 794
791 797
791 1803
792 796
792 798
793 794
794 795
800 802
800 812
800 839
800 840
800 845
800 851
800 855
800 874
800 875
800 881
800 895
800 928
800 930
800 933
800 940
800 945
800 946
800 953
800 959
800 994
800 995
800 1001
800 1002
800 1003
800 1004
800 1012
800 1023
800 1026
800 1036
800 1037
800 1038
800 1081
800 1087
800 1095
800 1096
800 1111
800 1114
800 1121
800 1131
800 1194
800 1211
801 815
801 817
801 824
801 828
801 833
801 834
801 836
801 866
801 875
801 885
801 904
801 914
801 916
801 941
801 949
801 974
801 977
801 990
801 1011
801 1024
801 1029
801 1037
801 1039
801 1046
801 1054
801 1060
801 1085
801 1092
801 1103
801 1107
801 1119
801 1122
801 1127
801 1141
801 1148
801 1151
801 1160
801 1164
801 1169
801 1176
801 1184
801 1195
802 805
802 806
802 807
802 808
802 819
802 824
802 841
802 847
802 865
802 872
802 882
802 885
802 886
802 916
802 928
802 929
802 947
802 954
802 956
802 985
802 1005
802 1009
802 1012
802 1013
802 1018
802 1023
802 1028
802 1031
802 1058
802 1070
802 1105
802 1109
802 1116
802 1117
802 1118
802 1129
802 1137
802 1140
802 1158
802 1161
802 1165
802 1173
802 1183
803 819
803 824
803 829
803 833
803 838
803 840
803 850
803 859
803 861
803 862
803 866
803 872
803 886
803 889
803 897
803 907
803 917
803 926
803 929
803 933
803 938
803 954
803 972
803 980
803 988
803 990
803 1003
803 1011
803 1023
803 1035
803 1049
803 1050
803 1052
803 1053
803 1055
803 1056
803 1059
803 1068
803 1073
803 1079
803 1081
803 1095
803 1113
803 1122
803 1134
803 1135
803 1146
803 1165
803 1166
803 1171
803 1180
804 819
804 841
804 843
804 858
804 869
804 883
804 892
804 898
804 901
804 917
804 919
804 938
804 945
804 947
804 960
804 963
804 972
804 977
804 1001
804 1013
804 1014
804 1036
804 1066
804 1071
804 1083
804 1086
804 1124
804 1127
804 1133
804 1141
804 1153
804 1162
805 811
805 818
805 851
805 855
805 870
805 882
805 887
805 889
805 917
805 921
805 930
805 938
805 939
805 941
805 943
805 944
805 951
805 953
805 955
805 961
805 968
805 992
805 1021
805 1026
805 1035
805 1050
805 1052
805 1070
805 1084
805 1091
805 1097
805 1117
805 1119
805 1124
805 1132
805 1144
805 1149
805 1152
805 1159
805 1182
805 1191
806 809
806 815
806 816
806 824
806 834
806 842
806 847
806 855
806 865
806 867
806 876
806 908
806 913
806 920
806 926
806 928
806 942
806 961
806 971
806 973
806 979
806 989
806 1023
806 1031
806 1042
806 1046
806 1047
806 1052
806 1053
806 1071
806 1078
806 1079
806 1081
806 1086
806 1099
806 1102
806 1106
806 1117
806 1124
806 1130
806 1135
806 1139
806 1152
806 1168
806 1174
806 1176
807 825
807 833
807 835
807 837
807 848
807 850
807 886
807 904
807 908
807 936
807 941
807 966
807 977
807 1000
807 1008
807 1018
807 1025
807 1029
807 1044
807 1057
807 1063
807 1070
807 1081
807 1083
807 1091
807 1094
807 1106
807 1107
807 1115
807 1132
807 1151
807 1164
807 1165
807 1182
807 1188
808 822
808 826
808 833
808 841
808 862
808 868
808 870
808 873
808 879
808 889
808 891
808 910
808 935
808 943
808 945
808 956
808 962
808 973
808 978
808 985
808 996
808 997
808 1017
808 1031
808 1034
808 1055
808 1060
808 1062
808 1063
808 1065
808 1067
808 1083
808 1090
808 1094
808 1095
808 1115
808 1124
808 1134
808 1154
808 1171
808 1183
808 1414
808 1680
809 816
809 819
809 844
809 852
809 861
809 888
809 920
809 923
809 928
809 951
809 959
809 970
809 977
809 979
809 997
809 1009
809 1020
809 1029
809 1048
809 1057
809 1067
809 1087
809 1090
809 1092
809 1095
809 1112
809 1113
809 1114
809 1116
809 1119
809 1125
809 1149
809 1151
809 1163
809 1186
809 1194
809 1197
810 817
810 839
810 858
810 871
810 894
810 896
810 898
810 900
810 925
810 935
810 938
810 939
810 949
810 959
810 963
810 967
810 979
810 982
810 1007
810 1020
810 1030
810 1033
810 1042
810 1050
810 1062
810 1106
810 1126
810 1130
810 1136
810 1137
810 1144
810 1147
810 1155
810 1166
810 1170
810 1174
810 1182
810 1187
810 1189
810 1247
811 823
811 834
811 852
811 867
811 873
811 890
811 893
811 920
811 923
811 930
811 943
811 952
811 957
811 959
811 974
811 977
811 994
811 1013
811 1016
811 1030
811 1039
811 1056
811 1072
811 1074
811 1076
811 1112
811 1114
811 1145
811 1155
811 1167
811 1169
811 1182
812 817
812 818
812 833
812 839
812 853
812 858
812 869
812 878
812 880
812 892
812 893
812 903
812 904
812 905
812 908
812 921
812 933
812 934
812 973
812 989
812 1003
812 1005
812 1036
812 1048
812 1053
812 1060
812 1092
812 1105
812 1106
812 1118
812 1136
812 1147
812 1155
812 1157
812 1163
812 1168
812 1169
812 1177
812 1185
812 1187
812 1192
812 1196
813 859
813 881
813 884
813 886
813 888
813 902
813 903
813 907
813 930
813 945
813 946
813 950
813 964
813 967
813 970
813 979
813 1009
813 1013
813 1023
813 1050
813 1070
813 1101
813 1103
813 1122
813 1136
813 1137
813 1140
813 1153
813 1191
813 1193
814 816
814 817
814 830
814 833
814 836
814 839
814 849
814 860
814 877
814 882
814 886
814 891
814 901
814 906
814 927
814 934
814 947
814 962
814 970
814 993
814 1007
814 1010
814 1014
814 1026
814 1030
814 1033
814 1051
814 1061
814 1068
814 1073
814 1075
814 1079
814 1085
814 1092
814 1110
814 1111
814 1121
814 1126
814 1136
814 1145
814 1154
814 1173
814 1197
815 847
815 849
815 861
815 864
815 870
815 879
815 885
815 886
815 891
815 894
815 912
815 938
815 949
815 958
815 965
815 1000
815 1011
815 1029
815 1030
815 1046
815 1064
815 1065
815 1066
815 1067
815 1079
815 1081
815 1104
815 1130
815 1158
815 1169
815 1170
815 1180
815 1185
815 1188
816 826
816 862
816 865
816 869
816 872
816 889
816 912
816 915
816 920
816 930
816 932
816 948
816 953
816 962
816 977
816 980
816 991
816 998
816 1024
816 1028
816 1034
816 1042
816 1046
816 1054
816 1056
816 1067
816 1080
816 1091
816 1110
816 1119
816 1124
816 1129
816 1130
816 1137
816 1140
816 1160
816 1162
816 1166
816 1167
816 1175
816 1179
816 1185
816 1191
817 821
817 830
817 842
817 843
817 844
817 851
817 858
817 873
817 879
817 898
817 902
817 904
817 907
817 911
817 917
817 930
817 934
817 935
817 954
817 969
817 981
817 997
817 1006
817 1022
817 1028
817 1029
817 1032
817 1036
817 1040
817 1053
817 1071
817 1086
817 1095
817 1123
817 1138
817 1141
817 1142
817 1146
817 1150
817 1152
817 1154
817 1172
817 1177
817 1188
817 1192
817 1197
818 833
818 837
818 868
818 887
818 894
818 906
818 908
818 913
818 916
818 918
818 922
818 924
818 927
818 942
818 943
818 946
818 992
818 993
818 996
818 1001
818 1017
818 1025
818 1031
818 1038
818 1039
818 1040
818 1050
818 1055
818 1067
818 1072
818 1073
818 1076
818 1079
818 1119
818 1140
818 1142
818 1159
818 1185
818 1196
819 824
819 844
819 854
819 900
819 902
819 905
819 907
819 918
819 922
819 929
819 937
819 943
819 982
819 986
819 989
819 1003
819 1021
819 1031
819 1032
819 1037
819 1044
819 1077
819 1084
819 1106
819 1126
819 1127
819 1138
819 1160
819 1161
819 1191
820 844
820 845
820 848
820 853
820 867
820 885
820 926
820 927
820 940
820 942
820 943
820 956
820 963
820 971
820 977
820 981
820 993
820 994
820 1003
820 1012
820 1016
820 1019
820 1022
820 1028
820 1045
820 1067
820 1128
820 1129
820 1138
820 1140
820 1173
820 1192
820 1193
821 832
821 836
821 841
821 850
821 856
821 860
821 865
821 868
821 882
821 884
821 888
821 898
821 920
821 931
821 946
821 973
821 996
821 999
821 1001
821 1005
821 1008
821 1011
821 1015
821 1022
821 1029
821 1039
821 1065
821 1069
821 1075
821 1096
821 1098
821 1106
821 1112
821 1119
821 1127
821 1140
821 1148
821 1149
821 1177
821 1178
821 1182
821 1190
821 1195
821 1197
821 1198
822 823
822 840
822 843
822 845
822 853
822 854
822 864
822 871
822 903
822 937
822 951
822 954
822 960
822 993
822 999
822 1000
822 1005
822 1020
822 1027
822 1035
822 1052
822 1069
822 1079
822 1089
822 1098
822 1110
822 1123
822 1143
822 1160
822 1164
822 1166
822 1175
822 1192
822 1193
822 1198
823 827
823 837
823 844
823 845
823 860
823 866
823 890
823 907
823 922
823 925
823 933
823 936
823 947
823 949
823 952
823 962
823 967
823 973
823 977
823 990
823 991
823 992
823 1008
823 1014
823 1019
823 1025
823 1028
823 1056
823 1069
823 1073
823 1083
823 1119
823 1127
823 1138
823 1157
823 1159
823 1184
823 1185
824 825
824 831
824 834
824 845
824 883
824 887
824 893
824 902
824 909
824 920
824 921
824 934
824 948
824 962
824 968
824 975
824 988
824 992
824 1012
824 1015
824 1016
824 1022
824 1028
824 1030
824 1036
824 1045
824 1057
824 1071
824 1095
824 1100
824 1120
824 1132
824 1136
824 1155
824 1157
824 1166
824 1171
824 1303
825 833
825 852
825 860
825 865
825 890
825 892
825 907
825 908
825 913
825 914
825 932
825 944
825 946
825 948
825 966
825 991
825 1007
825 1011
825 1032
825 1035
825 1040
825 1042
825 1045
825 1049
825 1061
825 1064
825 1069
825 1074
825 1075
825 1081
825 1105
825 1113
825 1115
825 1118
825 1127
825 1148
825 1161
825 1168
825 1170
825 1196
826 845
826 851
826 852
826 854
826 857
826 865
826 868
826 877
826 891
826 894
826 922
826 925
826 927
826 940
826 943
826 947
826 961
826 984
826 996
826 1001
826 1012
826 1015
826 1058
826 1102
826 1108
826 1117
826 1127
826 1140
826 1145
826 1159
826 1178
826 1180
827 828
827 854
827 873
827 881
827 882
827 883
827 885
827 894
827 900
827 910
827 916
827 926
827 930
827 932
827 934
827 952
827 955
827 959
827 971
827 973
827 978
827 979
827 984
827 990
827 991
827 992
827 1000
827 1001
827 1009
827 1017
827 1018
827 1028
827 1033
827 1045
827 1052
827 1068
827 1073
827 1076
827 1088
827 1092
827 1098
827 1117
827 1126
827 1127
827 1132
827 1139
827 1145
827 1149
827 1151
827 1154
827 1179
828 835
828 843
828 844
828 850
828 882
828 884
828 888
828 893
828 903
828 906
828 910
828 912
828 917
828 953
828 959
828 962
828 967
828 972
828 984
828 991
828 1002
828 1013
828 1017
828 1024
828 1027
828 1032
828 1044
828 1046
828 1057
828 1064
828 1070
828 1090
828 1097
828 1104
828 1107
828 1112
828 1122
828 1126
828 1131
828 1135
828 1154
828 1180
828 1189
828 1195
829 837
829 841
829 845
829 865
829 879
829 882
829 883
829 888
829 896
829 899
829 903
829 909
829 924
829 928
829 931
829 932
829 940
829 941
829 943
829 975
829 983
829 1032
829 1041
829 1046
829 1050
829 1055
829 1065
829 1067
829 1068
829 1080
829 1096
829 1117
829 1118
829 1135
829 1146
829 1150
829 1165
829 1179
830 837
830 839
830 863
830 886
830 888
830 893
830 905
830 907
830 915
830 933
830 943
830 964
830 970
830 978
830 993
830 1001
830 1009
830 1016
830 1024
830 1035
830 1039
830 1042
830 1043
830 1069
830 1076
830 1079
830 1082
830 1091
830 1096
830 1103
830 1107
830 1113
830 1114
830 1122
830 1152
830 1181
830 1187
830 1196
830 1561
831 832
831 842
831 869
831 878
831 901
831 905
831 913
831 925
831 934
831 938
831 942
831 964
831 971
831 976
831 977
831 1002
831 1004
831 1009
831 1016
831 1029
831 1048
831 1077
831 1082
831 1096
831 1103
831 1104
831 1111
831 1117
831 1164
831 1179
831 1196
832 840
832 849
832 855
832 862
832 881
832 893
832 901
832 909
832 923
832 940
832 956
832 967
832 973
832 984
832 990
832 1032
832 1054
832 1060
832 1075
832 1099
832 1108
832 1118
832 1122
832 1123
832 1124
832 1134
832 1140
832 1149
832 1150
832 1170
832 1175
832 1177
832 1181
832 1187
833 839
833 850
833 881
833 894
833 899
833 906
833 924
833 932
833 936
833 947
833 952
833 953
833 954
833 964
833 969
833 981
833 1000
833 1010
833 1016
833 1020
833 1030
833 1080
833 1090
833 1092
833 1099
833 1118
833 1141
833 1142
833 1159
833 1164
834 848
834 872
834 889
834 900
834 906
834 913
834 923
834 934
834 947
834 954
834 966
834 974
834 980
834 989
834 993
834 1004
834 1006
834 1007
834 1017
834 1025
834 1038
834 1039
834 1053
834 1073
834 1083
834 1099
834 1104
834 1110
834 1115
834 1129
834 1132
834 1133
834 1151
834 1171
834 1180
835 844
835 848
835 861
835 876
835 881
835 887
835 890
835 900
835 920
835 932
835 940
835 957
835 968
835 970
835 992
835 1012
835 1040
835 1042
835 1069
835 1077
835 1078
835 1088
835 1098
835 1100
835 1102
835 1128
835 1132
835 1133
835 1152
835 1175
836 858
836 874
836 878
836 885
836 889
836 905
836 909
836 913
836 916
836 929
836 937
836 959
836 994
836 1005
836 1024
836 1030
836 1038
836 1040
836 1041
836 1043
836 1064
836 1095
836 1110
836 1121
836 1134
836 1152
836 1165
836 1184
836 1187
836 1198
837 846
837 849
837 858
837 866
837 873
837 890
837 927
837 930
837 932
837 948
837 950
837 953
837 960
837 963
837 965
837 999
837 1004
837 1012
837 1017
837 1018
837 1028
837 1034
837 1035
837 1040
837 1042
837 1052
837 1057
837 1066
837 1074
837 1077
837 1098
837 1112
837 1117
837 1119
837 1120
837 1128
837 1145
837 1164
837 1169
837 1170
838 839
838 845
838 849
838 852
838 856
838 864
838 886
838 893
838 904
838 906
838 922
838 925
838 932
838 938
838 947
838 963
838 969
838 973
838 982
838 984
838 992
838 998
838 1004
838 1006
838 1035
838 1046
838 1049
838 1070
838 1073
838 1087
838 1115
838 1123
838 1137
838 1144
838 1148
838 1173
838 1185
838 1195
839 840
839 842
839 851
839 856
839 866
839 877
839 881
839 888
839 913
839 915
839 932
839 933
839 935
839 957
839 989
839 1009
839 1020
839 1028
839 1035
839 1045
839 1068
839 1093
839 1096
839 1121
839 1130
839 1132
839 1134
839 1156
839 1158
839 1172
839 1189
839 1192
839 1193
840 854
840 856
840 885
840 890
840 894
840 903
840 910
840 928
840 929
840 935
840 941
840 944
840 946
840 956
840 960
840 967
840 981
840 983
840 997
840 1005
840 1014
840 1020
840 1024
840 1049
840 1052
840 1073
840 1082
840 1105
840 1113
840 1121
840 1130
840 1146
840 1157
840 1166
840 1175
840 1178
840 1180
840 1191
840 1199
841 844
841 846
841 848
841 879
841 880
841 884
841 887
841 892
841 909
841 913
841 916
841 917
841 928
841 938
841 953
841 958
841 971
841 981
841 999
841 1003
841 1015
841 1017
841 1029
841 1054
841 1089
841 1106
841 1108
841 1109
841 1146
841 1173
841 1174
841 1195
841 1198
842 893
842 917
842 926
842 953
842 961
842 970
842 984
842 993
842 999
842 1012
842 1020
842 1023
842 1041
842 1058
842 1059
842 1066
842 1084
842 1090
842 1093
842 1098
842 1101
842 1104
842 1126
842 1134
842 1148
842 1155
842 1158
842 1174
842 1186
843 853
843 861
843 871
843 881
843 886
843 894
843 897
843 909
843 974
843 986
843 1001
843 1012
843 1028
843 1030
843 1037
843 1044
843 1056
843 1061
843 1065
843 1068
843 1091
843 1094
843 1098
843 1099
843 1102
843 1104
843 1107
843 1111
843 1121
843 1130
843 1156
843 1161
843 1170
843 1172
843 1173
843 1175
843 1178
843 1184
843 1185
843 1187
844 860
844 873
844 881
844 884
844 887
844 892
844 896
844 902
844 904
844 911
844 914
844 920
844 928
844 944
844 957
844 964
844 966
844 982
844 989
844 993
844 998
844 999
844 1000
844 1002
844 1037
844 1040
844 1042
844 1057
844 1065
844 1078
844 1080
844 1093
844 1112
844 1114
844 1118
844 1126
844 1131
844 1140
844 1170
844 1178
845 851
845 861
845 872
845 879
845 880
845 885
845 888
845 892
845 905
845 908
845 921
845 939
845 946
845 953
845 962
845 966
845 988
845 990
845 1001
845 1005
845 1021
845 1025
845 1029
845 1031
845 1032
845 1052
845 1072
845 1077
845 1080
845 1114
845 1125
845 1142
845 1147
845 1150
845 1163
845 1171
845 1173
845 1191
845 1199
846 852
846 862
846 864
846 875
846 876
846 898
846 924
846 933
846 938
846 943
846 948
846 950
846 960
846 985
846 989
846 993
846 1008
846 1015
846 1029
846 1038
846 1039
846 1046
846 1065
846 1066
846 1077
846 1085
846 1099
846 1103
846 1111
846 1112
846 1124
846 1151
846 1156
846 1175
846 1188
846 1195
847 851
847 856
847 864
847 866
847 882
847 891
847 904
847 911
847 920
847 921
847 943
847 955
847 964
847 967
847 974
847 982
847 988
847 990
847 994
847 1001
847 1016
847 1027
847 1032
847 1048
847 1051
847 1056
847 1057
847 1073
847 1079
847 1082
847 1088
847 1095
847 1109
847 1115
847 1117
847 1119
847 1144
847 1162
847 1192
847 1198
847 1199
847 1666
848 858
848 875
848 877
848 880
848 894
848 911
848 918
848 922
848 925
848 931
848 934
848 936
848 954
848 958
848 961
848 963
848 966
848 975
848 981
848 984
848 985
848 994
848 996
848 999
848 1008
848 1010
848 1016
848 1017
848 1033
848 1034
848 1057
848 1061
848 1067
848 1071
848 1075
848 1083
848 1104
848 1111
848 1124
848 1138
848 1146
848 1147
848 1154
848 1161
848 1165
848 1185
848 1199
849 861
849 862
849 893
849 901
849 918
849 930
849 934
849 945
849 948
849 963
849 967
849 975
849 978
849 980
849 981
849 986
849 997
849 1008
849 1014
849 1023
849 1047
849 1049
849 1051
849 1053
849 1056
849 1066
849 1076
849 1086
849 1087
849 1114
849 1117
849 1118
849 1123
849 1124
849 1125
849 1130
849 1139
849 1140
849 1157
849 1161
849 1165
849 1168
849 1188
849 1189
849 1198
850 874
850 876
850 896
850 908
850 939
850 959
850 960
850 961
850 962
850 994
850 1015
850 1031
850 1041
850 1055
850 1060
850 1064
850 1101
850 1108
850 1118
850 1124
850 1142
850 1145
850 1147
850 1157
850 1164
850 1169
850 1174
850 1185
850 1199
851 860
851 871
851 873
851 880
851 887
851 889
851 894
851 902
851 918
851 920
851 923
851 968
851 970
851 976
851 994
851 1002
851 1010
851 1011
851 1016
851 1022
851 1023
851 1029
851 1047
851 1056
851 1084
851 1087
851 1093
851 1098
851 1102
851 1116
851 1128
851 1148
851 1160
851 1161
851 1168
851 1178
851 1181
851 1187
851 1198
852 856
852 858
852 865
852 873
852 902
852 907
852 917
852 925
852 929
852 930
852 934
852 937
852 942
852 972
852 976
852 1007
852 1018
852 1031
852 1036
852 1053
852 1062
852 1064
852 1067
852 1085
852 1094
852 1097
852 1098
852 1106
852 1117
852 1121
852 1125
852 1179
852 1185
852 1186
852 1190
852 1193
852 1194
853 883
853 891
853 932
853 965
853 969
853 979
853 1001
853 1041
853 1055
853 1058
853 1070
853 1076
853 1082
853 1083
853 1094
853 1125
853 1130
853 1133
853 1134
853 1137
853 1144
853 1172
854 882
854 884
854 902
854 904
854 910
854 919
854 925
854 944
854 964
854 966
854 976
854 981
854 984
854 1001
854 1002
854 1003
854 1008
854 1009
854 1014
854 1016
854 1038
854 1043
854 1055
854 1064
854 1068
854 1074
854 1097
854 1098
854 1113
854 1115
854 1125
854 1130
854 1152
855 864
855 879
855 911
855 913
855 939
855 958
855 968
855 969
855 988
855 1000
855 1004
855 1011
855 1015
855 1023
855 1027
855 1039
855 1092
855 1104
855 1106
855 1108
855 1119
855 1127
855 1131
855 1134
855 1148
855 1150
855 1154
855 1166
855 1179
855 1183
855 1185
855 1186
855 1194
856 861
856 864
856 878
856 884
856 891
856 897
856 911
856 936
856 941
856 945
856 948
856 952
856 962
856 968
856 973
856 984
856 985
856 990
856 1003
856 1039
856 1063
856 1064
856 1068
856 1083
856 1093
856 1099
856 1107
856 1109
856 1115
856 1130
856 1138
856 1164
856 1167
856 1181
856 1185
856 1187
856 1822
857 864
857 866
857 873
857 878
857 879
857 882
857 883
857 893
857 897
857 917
857 926
857 936
857 945
857 951
857 960
857 977
857 992
857 1013
857 1023
857 1034
857 1047
857 1048
857 1055
857 1080
857 1084
857 1103
857 1114
857 1122
857 1133
857 1167
857 1172
857 1183
857 1185
857 1189
857 1192
858 915
858 919
858 930
858 931
858 958
858 969
858 972
858 989
858 1001
858 1002
858 1019
858 1020
858 1021
858 1043
858 1046
858 1065
858 1066
858 1067
858 1075
858 1089
858 1092
858 1103
858 1126
858 1136
858 1149
858 1152
858 1162
858 1178
858 1183
858 1190
858 1193
858 1199
859 872
859 874
859 909
859 922
859 968
859 995
859 1006
859 1015
859 1036
859 1055
859 1065
859 1081
859 1088
859 1091
859 1108
859 1122
859 1126
859 1127
859 1128
859 1132
859 1138
859 1140
859 1162
859 1168
859 1170
859 1199
860 865
860 876
860 879
860 903
860 908
860 913
860 927
860 944
860 950
860 967
860 969
860 987
860 998
860 1014
860 1016
860 1039
860 1040
860 1042
860 1047
860 1067
860 1073
860 1074
860 1075
860 1089
860 1092
860 1093
860 1096
860 1101
860 1137
860 1138
860 1140
860 1144
860 1147
860 1165
860 1182
860 1183
861 862
861 865
861 867
861 871
861 875
861 884
861 885
861 888
861 905
861 907
861 912
861 915
861 925
861 946
861 958
861 989
861 1001
861 1015
861 1026
861 1030
861 1042
861 1047
861 1052
861 1053
861 1055
861 1056
861 1063
861 1083
861 1085
861 1155
861 1184
861 1195
861 1198
862 879
862 882
862 893
862 948
862 962
862 971
862 984
862 990
862 997
862 1005
862 1012
862 1030
862 1053
862 1069
862 1072
862 1077
862 1078
862 1092
862 1096
862 1101
862 1103
862 1107
862 1108
862 1125
862 1132
862 1150
862 1153
862 1167
862 1181
863 880
863 882
863 889
863 891
863 901
863 907
863 922
863 927
863 937
863 941
863 953
863 959
863 962
863 977
863 981
863 983
863 984
863 986
863 991
863 1011
863 1023
863 1026
863 1051
863 1060
863 1068
863 1075
863 1077
863 1107
863 1112
863 1113
863 1118
863 1122
863 1128
863 1138
863 1149
863 1166
863 1170
863 1173
863 1176
863 1190
863 1199
864 868
864 875
864 893
864 897
864 910
864 912
864 936
864 942
864 954
864 987
864 1010
864 1020
864 1025
864 1069
864 1074
864 1083
864 1100
864 1104
864 1105
864 1112
864 1135
864 1141
864 1150
864 1152
864 1158
864 1166
864 1173
864 1174
864 1181
864 1190
865 872
865 874
865 883
865 886
865 888
865 906
865 913
865 921
865 925
865 928
865 936
865 948
865 989
865 999
865 1006
865 1014
865 1031
865 1032
865 1044
865 1045
865 1056
865 1060
865 1064
865 1065
865 1080
865 1089
865 1093
865 1095
865 1123
865 1124
865 1151
865 1157
865 1172
865 1190
866 872
866 878
866 886
866 903
866 912
866 920
866 926
866 937
866 945
866 948
866 960
866 962
866 970
866 976
866 978
866 982
866 990
866 1012
866 1022
866 1040
866 1041
866 1042
866 1050
866 1058
866 1059
866 1075
866 1104
866 1107
866 1118
866 1129
866 1130
866 1135
866 1137
866 1138
866 1154
866 1169
866 1173
866 1180
866 1193
866 1451
867 878
867 882
867 897
867 902
867 926
867 939
867 942
867 946
867 948
867 957
867 966
867 982
867 985
867 992
867 1027
867 1028
867 1041
867 1052
867 1073
867 1079
867 1097
867 1115
867 1122
867 1123
867 1127
867 1131
867 1137
867 1141
867 1142
867 1156
867 1180
867 1193
867 1194
867 1198
868 873
868 876
868 882
868 890
868 904
868 915
868 920
868 933
868 945
868 946
868 949
868 954
868 957
868 959
868 967
868 969
868 979
868 994
868 1003
868 1005
868 1011
868 1019
868 1033
868 1041
868 1055
868 1067
868 1085
868 1090
868 1098
868 1112
868 1119
868 1135
868 1140
868 1144
868 1146
868 1148
868 1149
868 1151
868 1159
868 1163
868 1176
868 1191
868 1199
869 901
869 934
869 935
869 936
869 943
869 945
869 963
869 965
869 974
869 975
869 976
869 984
869 989
869 998
869 1004
869 1010
869 1021
869 1043
869 1045
869 1048
869 1071
869 1075
869 1079
869 1127
869 1159
869 1186
869 1188
870 876
870 881
870 892
870 896
870 927
870 931
870 933
870 936
870 937
870 941
870 947
870 953
870 962
870 968
870 981
870 992
870 1006
870 1012
870 1018
870 1022
870 1024
870 1038
870 1046
870 1067
870 1077
870 1089
870 1096
870 1097
870 1108
870 1119
870 1123
870 1128
870 1129
870 1133
870 1147
870 1157
870 1169
870 1173
870 1174
870 1197
871 900
871 914
871 921
871 947
871 964
871 970
871 980
871 981
871 983
871 986
871 998
871 1010
871 1014
871 1042
871 1050
871 1056
871 1079
871 1085
871 1092
871 1100
871 1106
871 1114
871 1124
871 1125
871 1143
871 1152
871 1159
871 1180
871 1196
871 1199
872 883
872 897
872 907
872 923
872 927
872 934
872 951
872 952
872 961
872 1014
872 1031
872 1044
872 1046
872 1052
872 1065
872 1067
872 1093
872 1110
872 1125
872 1148
872 1150
872 1156
872 1164
872 1166
872 1171
872 1182
872 1188
872 1195
873 896
873 900
873 923
873 927
873 929
873 931
873 949
873 966
873 980
873 982
873 989
873 991
873 996
873 1012
873 1019
873 1022
873 1037
873 1042
873 1045
873 1046
873 1065
873 1081
873 1086
873 1088
873 1098
873 1104
873 1110
873 1112
873 1114
873 1121
873 1155
873 1172
873 1176
873 1181
874 878
874 894
874 896
874 897
874 898
874 899
874 900
874 920
874 932
874 937
874 941
874 963
874 966
874 985
874 992
874 995
874 1024
874 1035
874 1066
874 1072
874 1083
874 1111
874 1112
874 1132
874 1136
874 1137
874 1142
874 1158
874 1167
874 1169
874 1191
874 1193
875 903
875 911
875 913
875 924
875 938
875 946
875 951
875 957
875 962
875 966
875 968
875 971
875 976
875 998
875 999
875 1001
875 1013
875 1018
875 1019
875 1042
875 1050
875 1070
875 1071
875 1083
875 1086
875 1094
875 1110
875 1115
875 1118
875 1133
875 1150
875 1156
875 1173
875 1191
875 1192
875 1651
876 886
876 896
876 898
876 917
876 918
876 923
876 924
876 928
876 944
876 960
876 973
876 979
876 981
876 1027
876 1037
876 1047
876 1070
876 1073
876 1075
876 1080
876 1089
876 1106
876 1120
876 1127
876 1174
876 1182
876 1199
877 892
877 905
877 906
877 916
877 931
877 941
877 946
877 950
877 955
877 959
877 974
877 977
877 987
877 992
877 1018
877 1029
877 1038
877 1041
877 1053
877 1064
877 1082
877 1097
877 1121
877 1124
877 1132
877 1142
877 1149
877 1160
877 1170
877 1171
877 1173
877 1188
877 1196
878 891
878 902
878 910
878 932
878 945
878 964
878 970
878 971
878 975
878 977
878 992
878 993
878 996
878 999
878 1004
878 1016
878 1023
878 1029
878 1041
878 1050
878 1066
878 1101
878 1126
878 1138
878 1152
878 1158
878 1172
878 1173
878 1180
878 1190
878 1194
879 885
879 897
879 915
879 921
879 923
879 934
879 939
879 943
879 957
879 958
879 988
879 995
879 1000
879 1010
879 1037
879 1074
879 1076
879 1081
879 1083
879 1084
879 1094
879 1099
879 1105
879 1109
879 1111
879 1122
879 1154
879 1177
879 1179
879 1183
880 905
880 908
880 923
880 929
880 930
880 934
880 954
880 956
880 968
880 972
880 988
880 1010
880 1012
880 1025
880 1060
880 1064
880 1068
880 1083
880 1086
880 1088
880 1092
880 1097
880 1100
880 1101
880 1106
880 1107
880 1125
880 1132
880 1142
880 1143
880 1144
880 1156
880 1185
880 1198
880 1199
881 882
881 897
881 902
881 904
881 938
881 955
881 978
881 984
881 985
881 992
881 1017
881 1018
881 1024
881 1032
881 1033
881 1040
881 1049
881 1051
881 1054
881 1064
881 1070
881 1082
881 1099
881 1114
881 1116
881 1120
881 1123
881 1126
881 1130
881 1140
881 1147
881 1149
881 1156
881 1159
881 1180
881 1188
881 1196
882 885
882 887
882 889
882 899
882 900
882 929
882 936
882 956
882 957
882 971
882 977
882 982
882 984
882 989
882 995
882 1004
882 1015
882 1016
882 1031
882 1045
882 1046
882 1050
882 1059
882 1061
882 1069
882 1092
882 1097
882 1115
882 1125
882 1131
882 1138
882 1157
882 1181
882 1189
883 908
883 910
883 921
883 930
883 940
883 947
883 950
883 951
883 952
883 958
883 967
883 973
883 974
883 977
883 986
883 1011
883 1017
883 1024
883 1038
883 1050
883 1066
883 1073
883 1089
883 1117
883 1118
883 1123
883 1126
883 1127
883 1130
883 1132
883 1142
883 1168
883 1174
883 1180
883 1185
883 1195
883 1198
884 921
884 925
884 931
884 944
884 947
884 958
884 971
884 981
884 983
884 988
884 1002
884 1005
884 1006
884 1016
884 1026
884 1058
884 1062
884 1078
884 1092
884 1093
884 1098
884 1103
884 1121
884 1127
884 1128
884 1131
884 1143
884 1146
884 1162
884 1172
884 1177
884 1180
884 1183
885 897
885 925
885 934
885 937
885 942
885 961
885 967
885 969
885 985
885 990
885 991
885 994
885 1003
885 1004
885 1011
885 1012
885 1019
885 1023
885 1025
885 1026
885 1041
885 1052
885 1056
885 1057
885 1058
885 1069
885 1074
885 1110
885 1138
885 1149
885 1151
885 1161
885 1164
885 1167
885 1190
885 1192
885 1197
886 896
886 904
886 906
886 923
886 963
886 966
886 980
886 1004
886 1015
886 1043
886 1060
886 1063
886 1064
886 1078
886 1079
886 1085
886 1092
886 1095
886 1113
886 1117
886 1124
886 1133
886 1142
886 1146
886 1147
886 1150
886 1170
886 1172
886 1173
886 1181
886 1183
886 1184
886 1185
886 1189
886 1198
887 893
887 947
887 949
887 956
887 957
887 967
887 982
887 985
887 991
887 1001
887 1007
887 1018
887 1036
887 1045
887 1100
887 1102
887 1130
887 1147
887 1154
887 1170
887 1180
887 1184
887 1192
887 1194
888 889
888 901
888 909
888 915
888 920
888 924
888 943
888 946
888 975
888 979
888 981
888 985
888 993
888 1004
888 1009
888 1015
888 1030
888 1032
888 1047
888 1048
888 1049
888 1053
888 1067
888 1071
888 1073
888 1076
888 1087
888 1098
888 1114
888 1123
888 1148
888 1153
888 1157
888 1162
888 1181
888 1198
889 890
889 893
889 894
889 902
889 913
889 915
889 919
889 920
889 930
889 948
889 950
889 955
889 972
889 1015
889 1030
889 1045
889 1049
889 1053
889 1060
889 1062
889 1068
889 1077
889 1082
889 1086
889 1102
889 1150
889 1155
889 1159
889 1172
889 1174
889 1184
889 1191
890 923
890 925
890 926
890 932
890 957
890 970
890 1003
890 1005
890 1013
890 1022
890 1031
890 1045
890 1066
890 1084
890 1090
890 1091
890 1104
890 1109
890 1124
890 1142
890 1155
890 1158
890 1177
890 1182
891 898
891 905
891 907
891 928
891 961
891 968
891 972
891 974
891 978
891 980
891 990
891 1000
891 1007
891 1026
891 1030
891 1040
891 1041
891 1050
891 1070
891 1082
891 1090
891 1093
891 1109
891 1111
891 1131
891 1133
891 1141
891 1146
891 1158
891 1161
891 1163
891 1165
891 1166
891 1167
891 1170
891 1176
891 1185
891 1195
892 905
892 923
892 935
892 955
892 958
892 970
892 978
892 982
892 993
892 1006
892 1007
892 1009
892 1013
892 1027
892 1030
892 1042
892 1066
892 1072
892 1086
892 1091
892 1097
892 1100
892 1116
892 1125
892 1131
892 1141
892 1148
893 898
893 964
893 988
893 992
893 998
893 999
893 1007
893 1013
893 1014
893 1015
893 1017
893 1021
893 1030
893 1035
893 1044
893 1053
893 1071
893 1081
893 1107
893 1115
893 1116
893 1117
893 1126
893 1127
893 1151
893 1156
893 1157
893 1158
893 1168
893 1177
893 1183
893 1193
894 895
894 905
894 908
894 912
894 915
894 919
894 939
894 949
894 955
894 961
894 970
894 971
894 979
894 1006
894 1013
894 1018
894 1032
894 1039
894 1041
894 1055
894 1059
894 1060
894 1085
894 1092
894 1093
894 1105
894 1115
894 1124
894 1126
894 1131
894 1134
894 1136
894 1143
894 1165
894 1170
894 1174
894 1187
894 1191
894 1198
895 906
895 912
895 929
895 946
895 957
895 963
895 984
895 993
895 1007
895 1011
895 1012
895 1016
895 1018
895 1040
895 1042
895 1049
895 1057
895 1062
895 1064
895 1065
895 1075
895 1087
895 1101
895 1104
895 1112
895 1133
895 1137
895 1142
895 1151
895 1162
895 1178
895 1181
896 900
896 920
896 931
896 938
896 942
896 947
896 975
896 982
896 984
896 988
896 1014
896 1042
896 1055
896 1059
896 1068
896 1074
896 1084
896 1139
896 1159
896 1167
896 1177
896 1183
896 1189
897 902
897 907
897 915
897 923
897 924
897 938
897 939
897 965
897 971
897 983
897 985
897 991
897 995
897 999
897 1000
897 1025
897 1035
897 1036
897 1046
897 1068
897 1069
897 1072
897 1085
897 1112
897 1127
897 1136
897 1156
897 1177
897 1198
898 899
898 902
898 937
898 951
898 953
898 964
898 969
898 971
898 974
898 980
898 984
898 1001
898 1007
898 1017
898 1021
898 1040
898 1050
898 1069
898 1071
898 1086
898 1089
898 1092
898 1096
898 1116
898 1119
898 1126
898 1127
898 1145
898 1163
898 1165
898 1167
899 919
899 921
899 922
899 923
899 933
899 935
899 936
899 940
899 943
899 946
899 949
899 952
899 966
899 971
899 976
899 993
899 1001
899 1009
899 1029
899 1044
899 1053
899 1067
899 1070
899 1085
899 1086
899 1109
899 1112
899 1115
899 1118
899 1119
899 1147
899 1150
899 1169
899 1191
900 901
900 939
900 957
900 974
900 975
900 992
900 1006
900 1010
900 1012
900 1017
900 1026
900 1027
900 1066
900 1074
900 1076
900 1088
900 1089
900 1097
900 1104
900 1117
900 1119
900 1125
900 1126
900 1140
900 1147
900 1177
900 1184
900 1199
901 922
901 924
901 926
901 927
901 932
901 954
901 966
901 971
901 1001
901 1029
901 1031
901 1036
901 1048
901 1064
901 1068
901 1073
901 1085
901 1089
901 1094
901 1097
901 1098
901 1135
901 1142
901 1150
901 1156
901 1158
901 1161
902 905
902 939
902 943
902 950
902 952
902 968
902 970
902 976
902 986
902 999
902 1000
902 1010
902 1011
902 1016
902 1020
902 1025
902 1034
902 1035
902 1075
902 1091
902 1092
902 1098
902 1116
902 1126
902 1139
902 1159
902 1160
902 1166
902 1174
902 1177
902 1186
902 1197
903 929
903 946
903 953
903 981
903 985
903 991
903 994
903 1004
903 1007
903 1030
903 1038
903 1054
903 1069
903 1078
903 1079
903 1080
903 1090
903 1097
903 1113
903 1143
903 1152
903 1156
903 1163
903 1165
903 1167
903 1168
903 1198
904 910
904 919
904 938
904 942
904 955
904 962
904 969
904 976
904 992
904 993
904 1003
904 1006
904 1009
904 1019
904 1024
904 1025
904 1030
904 1033
904 1042
904 1049
904 1059
904 1068
904 1078
904 1094
904 1103
904 1108
904 1159
904 1161
904 1174
904 1177
904 1186
904 1190
904 1457
905 910
905 912
905 923
905 944
905 948
905 951
905 966
905 977
905 986
905 992
905 998
905 1000
905 1011
905 1015
905 1027
905 1034
905 1037
905 1042
905 1052
905 1054
905 1061
905 1069
905 1084
905 1090
905 1098
905 1106
905 1107
905 1157
906 909
906 923
906 939
906 945
906 948
906 952
906 964
906 980
906 997
906 998
906 1028
906 1034
906 1035
906 1050
906 1053
906 1055
906 1077
906 1079
906 1114
906 1118
906 1126
906 1149
906 1150
906 1157
906 1158
906 1161
906 1162
906 1163
906 1173
906 1174
906 1180
906 1185
906 1186
907 908
907 909
907 925
907 934
907 935
907 949
907 958
907 969
907 982
907 984
907 995
907 1017
907 1026
907 1028
907 1044
907 1049
907 1058
907 1066
907 1069
907 1075
907 1099
907 1114
907 1126
907 1131
907 1144
908 909
908 932
908 982
908 1007
908 1008
908 1038
908 1039
908 1068
908 1075
908 1098
908 1100
908 1109
908 1112
908 1120
908 1128
908 1142
908 1173
908 1189
908 1199
909 914
909 939
909 946
909 956
909 966
909 967
909 992
909 999
909 1005
909 1006
909 1034
909 1035
909 1043
909 1056
909 1072
909 1074
909 1079
909 1096
909 1104
909 1109
909 1113
909 1125
909 1137
909 1161
909 1169
909 1173
910 914
910 918
910 948
910 950
910 954
910 968
910 981
910 982
910 986
910 987
910 998
910 1002
910 1005
910 1009
910 1045
910 1048
910 1054
910 1064
910 1069
910 1071
910 1081
910 1092
910 1114
910 1116
910 1119
910 1129
910 1150
910 1172
910 1180
910 1188
910 1191
910 1193
910 1194
910 1197
910 1199
911 916
911 947
911 955
911 959
911 964
911 984
911 1004
911 1011
911 1032
911 1050
911 1061
911 1067
911 1082
911 1090
911 1096
911 1100
911 1107
911 1134
911 1138
911 1142
911 1150
911 1155
911 1157
911 1160
911 1166
911 1199
912 918
912 920
912 924
912 928
912 934
912 935
912 948
912 955
912 960
912 983
912 986
912 1002
912 1023
912 1025
912 1050
912 1053
912 1055
912 1060
912 1073
912 1085
912 1087
912 1107
912 1108
912 1116
912 1123
912 1127
912 1140
912 1142
912 1157
912 1170
912 1413
913 925
913 929
913 935
913 941
913 966
913 970
913 981
913 983
913 985
913 1001
913 1003
913 1010
913 1036
913 1042
913 1057
913 1064
913 1067
913 1074
913 1075
913 1081
913 1087
913 1089
913 1094
913 1099
913 1104
913 1106
913 1121
913 1125
913 1130
913 1131
913 1141
913 1147
913 1164
913 1167
913 1169
913 1174
913 1195
914 931
914 973
914 981
914 988
914 1004
914 1006
914 1010
914 1052
914 1054
914 1059
914 1077
914 1080
914 1081
914 1091
914 1124
914 1140
914 1151
914 1158
914 1162
914 1164
914 1182
914 1197
915 916
915 925
915 941
915 947
915 948
915 973
915 975
915 977
915 980
915 994
915 995
915 1009
915 1012
915 1017
915 1018
915 1024
915 1028
915 1034
915 1063
915 1072
915 1077
915 1097
915 1111
915 1117
915 1119
915 1120
915 1134
915 1149
915 1165
915 1168
915 1171
915 1181
915 1184
915 1199
916 922
916 924
916 932
916 935
916 936
916 943
916 946
916 965
916 968
916 972
916 973
916 976
916 994
916 995
916 996
916 997
916 999
916 1013
916 1025
916 1026
916 1039
916 1047
916 1065
916 1077
916 1079
916 1094
916 1100
916 1120
916 1136
916 1138
916 1162
916 1165
916 1166
916 1167
916 1171
916 1178
916 1182
916 1183
916 1194
917 919
917 930
917 935
917 941
917 953
917 956
917 959
917 968
917 1007
917 1011
917 1016
917 1019
917 1021
917 1022
917 1024
917 1031
917 1038
917 1040
917 1044
917 1046
917 1052
917 1057
917 1068
917 1076
917 1084
917 1099
917 1106
917 1111
917 1112
917 1120
917 1126
917 1143
917 1148
917 1152
917 1155
917 1158
917 1159
917 1160
917 1165
917 1192
917 1195
918 923
918 928
918 931
918 938
918 941
918 949
918 954
918 957
918 958
918 964
918 967
918 968
918 970
918 998
918 1000
918 1004
918 1005
918 1013
918 1026
918 1035
918 1042
918 1056
918 1059
918 1060
918 1061
918 1066
918 1067
918 1080
918 1083
918 1089
918 1128
918 1141
918 1153
918 1179
918 1182
918 1187
918 1194
918 1195
919 931
919 943
919 1008
919 1009
919 1014
919 1044
919 1051
919 1075
919 1077
919 1079
919 1084
919 1087
919 1125
919 1127
919 1144
919 1147
919 1174
919 1178
919 1181
919 1198
920 924
920 946
920 951
920 956
920 959
920 963
920 999
920 1001
920 1031
920 1045
920 1052
920 1054
920 1056
920 1062
920 1074
920 1090
920 1091
920 1113
920 1119
920 1137
920 1154
920 1155
920 1157
920 1164
920 1181
920 1182
920 1194
921 933
921 934
921 951
921 969
921 977
921 989
921 1002
921 1003
921 1013
921 1020
921 1025
921 1034
921 1039
921 1042
921 1044
921 1064
921 1069
921 1082
921 1104
921 1111
921 1116
921 1120
921 1122
921 1124
921 1128
921 1136
921 1145
921 1194
921 1197
922 930
922 935
922 938
922 939
922 945
922 960
922 968
922 982
922 996
922 1004
922 1007
922 1009
922 1011
922 1018
922 1024
922 1033
922 1035
922 1041
922 1044
922 1047
922 1051
922 1056
922 1059
922 1071
922 1081
922 1100
922 1106
922 1113
922 1121
922 1134
922 1145
922 1153
922 1158
922 1194
923 924
923 926
923 945
923 950
923 956
923 959
923 961
923 964
923 980
923 993
923 999
923 1008
923 1016
923 1046
923 1129
923 1150
923 1152
923 1157
923 1168
923 1177
923 1186
924 939
924 941
924 950
924 954
924 959
924 970
924 974
924 989
924 1014
924 1016
924 1021
924 1027
924 1035
924 1037
924 1048
924 1056
924 1081
924 1099
924 1106
924 1120
924 1127
924 1138
924 1150
924 1153
924 1156
924 1157
924 1168
924 1175
924 1186
924 1187
925 940
925 953
925 958
925 961
925 978
925 994
925 1000
925 1014
925 1042
925 1048
925 1062
925 1079
925 1089
925 1091
925 1093
925 1100
925 1104
925 1134
925 1141
925 1150
925 1153
925 1161
925 1163
925 1182
925 1184
925 1186
925 1193
926 927
926 928
926 933
926 954
926 957
926 978
926 979
926 980
926 986
926 1025
926 1026
926 1038
926 1040
926 1052
926 1062
926 1063
926 1114
926 1118
926 1122
926 1128
926 1147
926 1154
926 1177
926 1179
926 1180
926 1199
927 930
927 932
927 935
927 940
927 946
927 975
927 985
927 994
927 1025
927 1027
927 1055
927 1063
927 1074
927 1077
927 1118
927 1119
927 1129
927 1145
927 1182
927 1183
927 1184
927 1186
928 934
928 945
928 946
928 958
928 959
928 967
928 970
928 980
928 985
928 990
928 991
928 992
928 999
928 1002
928 1039
928 1046
928 1052
928 1058
928 1065
928 1066
928 1080
928 1088
928 1104
928 1110
928 1114
928 1117
928 1122
928 1125
928 1133
928 1134
928 1141
928 1143
928 1170
928 1172
928 1185
928 1187
928 1192
928 1193
929 931
929 936
929 947
929 963
929 966
929 978
929 987
929 1012
929 1013
929 1016
929 1024
929 1033
929 1037
929 1039
929 1042
929 1043
929 1045
929 1047
929 1056
929 1069
929 1070
929 1085
929 1109
929 1123
929 1143
929 1145
929 1150
929 1158
929 1177
929 1185
930 938
930 946
930 969
930 987
930 994
930 996
930 998
930 1025
930 1048
930 1073
930 1089
930 1115
930 1119
930 1121
930 1123
930 1126
930 1133
930 1134
930 1151
930 1171
930 1172
930 1185
930 1190
930 1191
930 1192
930 1193
930 1197
931 943
931 946
931 957
931 972
931 975
931 977
931 999
931 1010
931 1016
931 1022
931 1024
931 1030
931 1039
931 1051
931 1052
931 1054
931 1055
931 1065
931 1068
931 1075
931 1081
931 1091
931 1094
931 1107
931 1114
931 1142
931 1162
931 1175
931 1177
931 1178
931 1179
931 1196
931 1198
932 937
932 945
932 948
932 959
932 966
932 1022
932 1024
932 1046
932 1050
932 1052
932 1055
932 1061
932 1086
932 1091
932 1104
932 1107
932 1124
932 1127
932 1128
932 1136
932 1138
932 1149
932 1166
932 1176
932 1181
932 1192
933 936
933 939
933 942
933 944
933 948
933 958
933 963
933 971
933 975
933 984
933 986
933 987
933 996
933 1026
933 1044
933 1053
933 1061
933 1063
933 1074
933 1095
933 1096
933 1110
933 1125
933 1144
933 1170
933 1174
933 1179
933 1180
933 1184
934 935
934 968
934 979
934 1021
934 1038
934 1044
934 1051
934 1073
934 1087
934 1091
934 1117
934 1120
934 1122
934 1126
934 1129
934 1134
934 1136
934 1139
934 1141
934 1148
934 1172
934 1182
935 952
935 978
935 992
935 996
935 998
935 1011
935 1035
935 1066
935 1084
935 1126
935 1131
935 1133
935 1138
935 1141
935 1146
935 1158
935 1166
935 1179
935 1186
935 1198
936 938
936 948
936 954
936 955
936 956
936 963
936 964
936 966
936 970
936 998
936 1015
936 1016
936 1055
936 1056
936 1062
936 1077
936 1080
936 1085
936 1087
936 1100
936 1102
936 1109
936 1120
936 1121
936 1126
936 1133
936 1139
936 1170
936 1178
936 1185
936 1189
936 1192
937 974
937 979
937 998
937 1003
937 1008
937 1018
937 1022
937 1026
937 1041
937 1056
937 1059
937 1060
937 1066
937 1074
937 1080
937 1082
937 1084
937 1090
937 1095
937 1101
937 1102
937 1110
937 1122
937 1134
937 1143
937 1161
937 1170
937 1181
937 1189
937 1194
938 939
938 947
938 949
938 955
938 971
938 981
938 985
938 995
938 1006
938 1027
938 1034
938 1111
938 1130
938 1141
939 956
939 958
939 960
939 968
939 988
939 989
939 991
939 993
939 1018
939 1024
939 1028
939 1029
939 1032
939 1057
939 1058
939 1063
939 1067
939 1090
939 1105
939 1108
939 1117
939 1125
939 1126
939 1129
939 1132
939 1133
939 1134
939 1139
939 1153
939 1178
939 1187
939 1188
940 941
940 959
940 962
940 981
940 994
940 1000
940 1002
940 1004
940 1005
940 1006
940 1008
940 1018
940 1032
940 1040
940 1041
940 1042
940 1057
940 1071
940 1078
940 1100
940 1115
940 1116
940 1123
940 1131
940 1135
940 1138
940 1140
940 1143
940 1172
940 1176
940 1186
941 958
941 963
941 969
941 971
941 975
941 992
941 998
941 1011
941 1017
941 1028
941 1036
941 1039
941 1062
941 1081
941 1107
941 1117
941 1128
941 1134
941 1143
941 1148
941 1166
941 1170
941 1173
941 1175
941 1176
941 1182
941 1197
942 944
942 968
942 972
942 977
942 986
942 995
942 997
942 1013
942 1015
942 1031
942 1039
942 1047
942 1056
942 1071
942 1080
942 1094
942 1097
942 1101
942 1125
942 1178
942 1184
942 1185
942 1189
942 1190
942 1192
943 971
943 982
943 989
943 992
943 996
943 999
943 1002
943 1003
943 1009
943 1019
943 1023
943 1026
943 1036
943 1044
943 1049
943 1050
943 1061
943 1074
943 1098
943 1104
943 1110
943 1112
943 1113
943 1119
943 1123
943 1127
943 1134
943 1143
943 1149
943 1153
943 1160
943 1189
943 1194
944 954
944 962
944 965
944 966
944 972
944 986
944 989
944 992
944 994
944 1005
944 1009
944 1033
944 1038
944 1058
944 1085
944 1088
944 1096
944 1109
944 1116
944 1127
944 1131
944 1153
944 1159
944 1181
944 1185
944 1188
944 1189
944 1192
945 958
945 973
945 993
945 996
945 1004
945 1005
945 1007
945 1017
945 1026
945 1038
945 1043
945 1048
945 1074
945 1080
945 1082
945 1089
945 1091
945 1101
945 1109
945 1112
945 1118
945 1127
945 1131
945 1172
945 1176
945 1190
946 948
946 993
946 998
946 1021
946 1024
946 1025
946 1034
946 1036
946 1039
946 1044
946 1062
946 1070
946 1077
946 1087
946 1091
946 1094
946 1103
946 1104
946 1105
946 1107
946 1111
946 1113
946 1125
946 1133
946 1137
946 1140
946 1143
946 1157
946 1161
946 1162
946 1189
946 1197
947 961
947 973
947 983
947 991
947 1025
947 1034
947 1036
947 1045
947 1060
947 1077
947 1080
947 1089
947 1092
947 1112
947 1144
947 1145
947 1165
947 1170
947 1178
947 1179
947 1189
947 1195
947 1466
948 949
948 968
948 976
948 985
948 1005
948 1072
948 1087
948 1088
948 1093
948 1106
948 1115
948 1117
948 1121
948 1126
948 1134
948 1161
948 1167
948 1170
949 951
949 952
949 956
949 963
949 965
949 974
949 985
949 988
949 997
949 1002
949 1012
949 1022
949 1025
949 1029
949 1042
949 1043
949 1046
949 1048
949 1049
949 1091
949 1102
949 1106
949 1125
949 1126
949 1133
949 1136
949 1137
949 1139
949 1159
949 1179
949 1181
950 953
950 957
950 972
950 974
950 994
950 1000
950 1024
950 1031
950 1050
950 1082
950 1085
950 1086
950 1089
950 1107
950 1113
950 1114
950 1121
950 1124
950 1125
950 1163
950 1164
950 1175
950 1186
950 1190
950 1195
950 1197
951 981
951 982
951 988
951 989
951 990
951 995
951 999
951 1000
951 1024
951 1032
951 1034
951 1040
951 1048
951 1096
951 1118
951 1125
951 1158
951 1159
951 1161
951 1169
951 1178
951 1181
952 969
952 977
952 989
952 993
952 1000
952 1005
952 1028
952 1049
952 1060
952 1084
952 1094
952 1104
952 1136
952 1138
952 1140
952 1154
952 1167
952 1169
952 1183
952 1185
952 1191
952 1199
953 967
953 970
953 986
953 989
953 995
953 1001
953 1011
953 1032
953 1053
953 1064
953 1074
953 1078
953 1090
953 1093
953 1101
953 1109
953 1122
953 1131
953 1134
953 1135
953 1139
953 1146
953 1155
953 1157
953 1161
953 1170
953 1192
954 973
954 974
954 987
954 995
954 1004
954 1029
954 1036
954 1037
954 1058
954 1062
954 1064
954 1075
954 1086
954 1092
954 1094
954 1095
954 1101
954 1102
954 1106
954 1114
954 1132
954 1138
954 1142
954 1151
954 1167
954 1173
954 1188
954 1189
954 1196
954 1198
955 961
955 970
955 983
955 987
955 989
955 1018
955 1024
955 1027
955 1030
955 1049
955 1051
955 1064
955 1069
955 1080
955 1085
955 1103
955 1104
955 1109
955 1134
955 1148
955 1161
955 1166
955 1175
955 1176
955 1189
956 975
956 978
956 979
956 980
956 992
956 1001
956 1009
956 1024
956 1027
956 1031
956 1050
956 1053
956 1067
956 1073
956 1084
956 1088
956 1094
956 1096
956 1118
956 1124
956 1149
956 1152
956 1153
956 1170
956 1174
956 1195
957 962
957 964
957 977
957 985
957 990
957 991
957 1011
957 1017
957 1027
957 1031
957 1042
957 1051
957 1064
957 1078
957 1089
957 1091
957 1099
957 1107
957 1116
957 1141
957 1143
957 1156
957 1159
957 1163
957 1168
957 1173
957 1179
957 1185
957 1197
958 970
958 976
958 978
958 982
958 999
958 1003
958 1005
958 1034
958 1048
958 1060
958 1064
958 1072
958 1073
958 1081
958 1084
958 1095
958 1100
958 1120
958 1138
958 1141
958 1143
958 1147
958 1148
958 1149
958 1151
958 1154
958 1155
958 1156
958 1173
958 1181
958 1189
958 1191
958 1373
959 960
959 962
959 964
959 969
959 972
959 975
959 987
959 990
959 994
959 1023
959 1032
959 1041
959 1044
959 1071
959 1079
959 1086
959 1102
959 1126
959 1149
959 1165
959 1180
959 1186
959 1189
960 969
960 985
960 990
960 1033
960 1038
960 1049
960 1052
960 1062
960 1065
960 1068
960 1075
960 1084
960 1105
960 1106
960 1108
960 1111
960 1116
960 1118
960 1126
960 1135
960 1141
960 1143
960 1171
960 1177
960 1196
961 963
961 982
961 995
961 999
961 1008
961 1009
961 1016
961 1017
961 1033
961 1038
961 1043
961 1054
961 1056
961 1066
961 1069
961 1082
961 1126
961 1132
961 1140
961 1143
961 1146
961 1148
961 1152
961 1171
961 1174
961 1179
961 1196
961 1197
962 968
962 970
962 973
962 977
962 986
962 991
962 1006
962 1040
962 1046
962 1063
962 1075
962 1104
962 1106
962 1109
962 1131
962 1132
962 1133
962 1137
962 1152
962 1162
962 1181
962 1185
962 1198
963 968
963 985
963 989
963 1017
963 1032
963 1043
963 1044
963 1065
963 1076
963 1092
963 1100
963 1115
963 1118
963 1127
963 1181
963 1198
964 974
964 993
964 1022
964 1027
964 1053
964 1055
964 1062
964 1066
964 1072
964 1087
964 1089
964 1092
964 1100
964 1101
964 1123
964 1128
964 1134
964 1137
964 1144
964 1152
964 1172
964 1176
964 1184
964 1199
965 969
965 1014
965 1025
965 1029
965 1043
965 1045
965 1059
965 1067
965 1069
965 1072
965 1073
965 1080
965 1088
965 1095
965 1096
965 1098
965 1106
965 1134
965 1153
965 1168
965 1169
965 1179
965 1187
965 1189
965 1190
965 1195
966 976
966 983
966 1011
966 1020
966 1023
966 1024
966 1042
966 1096
966 1099
966 1100
966 1102
966 1127
966 1145
966 1149
966 1153
966 1154
966 1165
966 1173
966 1175
966 1187
966 1199
967 991
967 994
967 1002
967 1011
967 1022
967 1031
967 1045
967 1051
967 1076
967 1081
967 1084
967 1085
967 1117
967 1121
967 1123
967 1131
967 1134
967 1146
967 1156
967 1158
967 1170
967 1172
967 1183
967 1197
968 969
968 1001
968 1010
968 1011
968 1012
968 1013
968 1036
968 1040
968 1046
968 1055
968 1071
968 1078
968 1088
968 1096
968 1097
968 1118
968 1129
968 1149
968 1150
968 1155
968 1157
968 1161
968 1170
968 1174
968 1183
968 1198
969 996
969 997
969 1054
969 1067
969 1086
969 1102
969 1141
969 1149
969 1154
969 1170
969 1175
969 1193
969 1194
970 971
970 981
970 985
970 993
970 996
970 1033
970 1034
970 1050
970 1053
970 1058
970 1071
970 1076
970 1103
970 1109
970 1118
970 1119
970 1138
970 1139
970 1146
970 1194
971 977
971 988
971 989
971 1008
971 1024
971 1029
971 1032
971 1043
971 1052
971 1057
971 1061
971 1070
971 1079
971 1102
971 1131
971 1135
971 1174
971 1180
971 1186
971 1188
972 983
972 989
972 1007
972 1009
972 1010
972 1014
972 1020
972 1033
972 1049
972 1054
972 1073
972 1076
972 1079
972 1086
972 1089
972 1100
972 1103
972 1127
972 1136
972 1153
972 1167
972 1168
972 1196
973 985
973 1005
973 1048
973 1049
973 1086
973 1096
973 1103
973 1108
973 1115
973 1137
973 1146
973 1161
973 1164
973 1188
973 1190
973 1194
973 1195
973 1196
973 1197
974 997
974 1001
974 1004
974 1008
974 1018
974 1053
974 1056
974 1060
974 1065
974 1072
974 1079
974 1086
974 1115
974 1117
974 1129
974 1140
974 1158
974 1162
974 1164
975 977
975 1000
975 1010
975 1013
975 1014
975 1019
975 1046
975 1056
975 1060
975 1076
975 1087
975 1092
975 1104
975 1126
975 1130
975 1133
975 1136
975 1139
975 1146
975 1147
975 1194
976 978
976 989
976 1019
976 1024
976 1040
976 1047
976 1063
976 1080
976 1095
976 1108
976 1113
976 1120
976 1127
976 1139
976 1141
976 1143
976 1146
976 1149
976 1152
976 1175
976 1180
976 1182
976 1190
977 978
977 994
977 997
977 998
977 1005
977 1011
977 1047
977 1053
977 1054
977 1062
977 1065
977 1078
977 1086
977 1094
977 1120
977 1136
977 1138
977 1144
977 1160
977 1179
977 1185
977 1188
977 1199
978 997
978 1005
978 1024
978 1027
978 1042
978 1048
978 1055
978 1059
978 1067
978 1078
978 1081
978 1083
978 1101
978 1103
978 1138
978 1150
978 1173
978 1178
978 1189
978 1191
978 1194
979 991
979 1001
979 1004
979 1007
979 1012
979 1032
979 1041
979 1045
979 1051
979 1069
979 1070
979 1077
979 1092
979 1099
979 1101
979 1116
979 1117
979 1136
979 1141
979 1149
979 1153
979 1154
979 1156
979 1172
979 1178
979 1185
979 1188
980 985
980 995
980 997
980 1004
980 1034
980 1036
980 1042
980 1044
980 1061
980 1065
980 1075
980 1108
980 1116
980 1121
980 1125
980 1126
980 1158
980 1170
980 1172
980 1190
981 987
981 1011
981 1017
981 1035
981 1040
981 1068
981 1077
981 1085
981 1090
981 1128
981 1140
981 1175
982 999
982 1012
982 1013
982 1035
982 1037
982 1057
982 1066
982 1076
982 1081
982 1089
982 1093
982 1095
982 1098
982 1110
982 1119
982 1121
982 1131
982 1140
982 1145
982 1152
982 1160
982 1173
982 1175
982 1182
982 1184
982 1188
982 1197
983 1024
983 1025
983 1027
983 1028
983 1037
983 1046
983 1055
983 1080
983 1088
983 1110
983 1119
983 1138
983 1139
983 1140
983 1145
983 1161
983 1171
983 1174
983 1183
983 1191
984 987
984 995
984 1012
984 1024
984 1058
984 1100
984 1106
984 1115
984 1129
984 1142
984 1173
984 1186
984 1194
984 1199
985 991
985 1011
985 1061
985 1063
985 1089
985 1099
985 1112
985 1120
985 1121
985 1155
985 1157
985 1161
985 1167
985 1182
985 1194
986 1001
986 1018
986 1026
986 1027
986 1028
986 1030
986 1050
986 1052
986 1060
986 1075
986 1102
986 1115
986 1132
986 1135
986 1146
986 1161
986 1163
986 1170
986 1191
986 1199
987 1008
987 1013
987 1021
987 1026
987 1028
987 1037
987 1049
987 1053
987 1065
987 1078
987 1083
987 1085
987 1090
987 1093
987 1099
987 1103
987 1126
987 1166
987 1168
988 989
988 997
988 1010
988 1015
988 1021
988 1026
988 1033
988 1034
988 1046
988 1053
988 1061
988 1083
988 1089
988 1091
988 1095
988 1117
988 1140
988 1148
988 1155
988 1160
988 1167
988 1169
988 1170
988 1172
988 1176
988 1189
988 1192
988 1196
989 1005
989 1007
989 1008
989 1009
989 1011
989 1064
989 1065
989 1076
989 1089
989 1100
989 1112
989 1123
989 1128
989 1144
989 1146
989 1150
989 1173
989 1184
989 1189
989 1198
990 992
990 997
990 1004
990 1007
990 1018
990 1019
990 1020
990 1027
990 1052
990 1071
990 1083
990 1084
990 1090
990 1102
990 1113
990 1129
990 1133
990 1141
990 1151
990 1157
990 1166
990 1187
990 1195
991 992
991 995
991 1009
991 1010
991 1013
991 1018
991 1032
991 1033
991 1042
991 1057
991 1062
991 1068
991 1069
991 1088
991 1094
991 1108
991 1125
991 1142
991 1147
991 1152
991 1182
991 1189
991 1195
991 1198
991 1199
992 996
992 1037
992 1039
992 1042
992 1043
992 1045
992 1046
992 1047
992 1054
992 1057
992 1059
992 1072
992 1073
992 1080
992 1085
992 1093
992 1094
992 1096
992 1099
992 1142
992 1148
992 1161
992 1167
992 1175
992 1191
992 1197
993 1019
993 1022
993 1030
993 1034
993 1045
993 1066
993 1074
993 1085
993 1091
993 1097
993 1102
993 1110
993 1116
993 1117
993 1125
993 1176
993 1180
993 1187
993 1192
994 1002
994 1008
994 1016
994 1043
994 1052
994 1085
994 1086
994 1091
994 1095
994 1098
994 1108
994 1118
994 1119
994 1135
994 1154
994 1160
994 1169
994 1176
994 1180
994 1186
994 1190
994 1197
995 997
995 1004
995 1023
995 1024
995 1063
995 1066
995 1070
995 1072
995 1084
995 1085
995 1115
995 1116
995 1121
995 1124
995 1152
995 1159
995 1163
995 1168
995 1171
995 1191
996 1002
996 1015
996 1018
996 1019
996 1030
996 1033
996 1044
996 1045
996 1056
996 1062
996 1066
996 1083
996 1091
996 1119
996 1125
996 1130
996 1142
996 1144
996 1153
996 1156
996 1162
996 1165
996 1170
996 1173
996 1180
996 1183
997 1000
997 1002
997 1034
997 1036
997 1050
997 1096
997 1108
997 1130
997 1131
997 1133
997 1141
997 1145
997 1156
997 1161
997 1173
997 1174
997 1179
997 1188
997 1192
997 1197
998 1015
998 1040
998 1044
998 1045
998 1051
998 1052
998 1062
998 1071
998 1076
998 1098
998 1110
998 1120
998 1123
998 1146
998 1162
998 1165
998 1168
998 1173
998 1191
999 1002
999 1006
999 1020
999 1021
999 1024
999 1027
999 1029
999 1033
999 1041
999 1074
999 1082
999 1084
999 1086
999 1090
999 1106
999 1117
999 1123
999 1136
999 1139
999 1142
999 1145
999 1149
999 1156
999 1160
999 1176
999 1181
999 1197
1000 1002
1000 1009
1000 1020
1000 1031
1000 1039
1000 1041
1000 1044
1000 1048
1000 1055
1000 1065
1000 1069
1000 1083
1000 1090
1000 1101
1000 1103
1000 1106
1000 1118
1000 1121
1000 1123
1000 1137
1000 1143
1000 1154
1000 1174
1001 1002
1001 1009
1001 1020
1001 1032
1001 1043
1001 1058
1001 1072
1001 1076
1001 1094
1001 1136
1001 1144
1001 1147
1001 1165
1001 1167
1001 1180
1001 1184
1001 1191
1002 1009
1002 1033
1002 1042
1002 1062
1002 1063
1002 1066
1002 1067
1002 1085
1002 1091
1002 1095
1002 1106
1002 1114
1002 1118
1002 1125
1002 1135
1002 1167
1002 1173
1002 1179
1002 1187
1003 1008
1003 1019
1003 1029
1003 1048
1003 1052
1003 1056
1003 1070
1003 1079
1003 1083
1003 1085
1003 1116
1003 1125
1003 1138
1003 1155
1003 1162
1003 1163
1003 1181
1003 1188
1004 1011
1004 1021
1004 1028
1004 1035
1004 1037
1004 1039
1004 1069
1004 1088
1004 1097
1004 1120
1004 1145
1004 1166
1004 1174
1004 1176
1004 1185
1004 1195
1004 1196
1005 1012
1005 1016
1005 1030
1005 1035
1005 1043
1005 1062
1005 1063
1005 1070
1005 1080
1005 1089
1005 1096
1005 1105
1005 1116
1005 1120
1005 1121
1005 1127
1005 1128
1005 1151
1005 1168
1005 1169
1005 1170
1005 1194
1005 1195
1005 1196
1006 1024
1006 1026
1006 1033
1006 1035
1006 1040
1006 1063
1006 1069
1006 1074
1006 1099
1006 1104
1006 1111
1006 1135
1006 1139
1006 1147
1006 1156
1006 1184
1006 1189
1006 1190
1006 1196
1006 1199
1006 1843
1007 1011
1007 1012
1007 1027
1007 1028
1007 1037
1007 1043
1007 1066
1007 1067
1007 1097
1007 1101
1007 1109
1007 1135
1007 1142
1007 1143
1007 1147
1007 1151
1007 1155
1007 1159
1007 1166
1007 1186
1007 1198
1008 1009
1008 1012
1008 1020
1008 1021
1008 1034
1008 1038
1008 1043
1008 1054
1008 1063
1008 1066
1008 1077
1008 1110
1008 1156
1008 1158
1008 1168
1008 1169
1009 1025
1009 1045
1009 1072
1009 1073
1009 1090
1009 1109
1009 1132
1009 1137
1009 1145
1009 1150
1009 1155
1009 1156
1009 1185
1009 1199
1010 1016
1010 1030
1010 1052
1010 1070
1010 1078
1010 1079
1010 1085
1010 1092
1010 1100
1010 1116
1010 1130
1010 1141
1010 1144
1010 1148
1010 1150
1010 1182
1010 1183
1010 1197
1011 1017
1011 1018
1011 1029
1011 1037
1011 1043
1011 1050
1011 1064
1011 1066
1011 1067
1011 1071
1011 1078
1011 1081
1011 1082
1011 1091
1011 1093
1011 1094
1011 1098
1011 1099
1011 1102
1011 1105
1011 1113
1011 1131
1011 1132
1011 1137
1011 1140
1011 1155
1011 1184
1011 1188
1011 1193
1012 1022
1012 1024
1012 1031
1012 1033
1012 1043
1012 1045
1012 1054
1012 1059
1012 1073
1012 1079
1012 1095
1012 1101
1012 1107
1012 1126
1012 1128
1012 1131
1012 1139
1012 1155
1012 1156
1012 1165
1012 1167
1012 1195
1013 1025
1013 1027
1013 1035
1013 1042
1013 1057
1013 1073
1013 1078
1013 1080
1013 1089
1013 1096
1013 1097
1013 1118
1013 1127
1013 1136
1013 1139
1013 1142
1013 1144
1013 1152
1013 1170
1013 1174
1013 1177
1013 1188
1014 1015
1014 1025
1014 1031
1014 1038
1014 1044
1014 1067
1014 1074
1014 1076
1014 1077
1014 1111
1014 1118
1014 1122
1014 1125
1014 1135
1014 1142
1014 1151
1014 1152
1014 1158
1014 1160
1014 1165
1014 1178
1014 1592
1015 1020
1015 1025
1015 1033
1015 1036
1015 1042
1015 1060
1015 1070
1015 1077
1015 1078
1015 1107
1015 1120
1015 1127
1015 1135
1015 1145
1015 1155
1015 1172
1015 1176
1015 1185
1015 1197
1016 1019
1016 1021
1016 1022
1016 1035
1016 1038
1016 1040
1016 1065
1016 1070
1016 1072
1016 1085
1016 1102
1016 1105
1016 1109
1016 1116
1016 1123
1016 1127
1016 1130
1016 1133
1016 1148
1016 1153
1016 1186
1016 1189
1017 1028
1017 1034
1017 1041
1017 1059
1017 1065
1017 1077
1017 1086
1017 1109
1017 1116
1017 1131
1017 1134
1017 1146
1017 1160
1017 1182
1017 1185
1018 1020
1018 1025
1018 1040
1018 1046
1018 1048
1018 1057
1018 1061
1018 1076
1018 1091
1018 1097
1018 1110
1018 1124
1018 1130
1018 1144
1018 1151
1018 1155
1018 1161
1018 1177
1018 1184
1018 1190
1018 1199
1018 1418
1019 1032
1019 1033
1019 1046
1019 1052
1019 1073
1019 1075
1019 1088
1019 1095
1019 1101
1019 1126
1019 1135
1019 1152
1019 1155
1019 1159
1019 1161
1019 1166
1019 1194
1020 1028
1020 1032
1020 1055
1020 1058
1020 1076
1020 1081
1020 1084
1020 1088
1020 1097
1020 1103
1020 1105
1020 1117
1020 1134
1020 1135
1020 1147
1020 1171
1020 1175
1020 1179
1020 1183
1020 1616
1021 1027
1021 1028
1021 1037
1021 1039
1021 1043
1021 1050
1021 1064
1021 1065
1021 1078
1021 1079
1021 1081
1021 1083
1021 1084
1021 1085
1021 1091
1021 1092
1021 1102
1021 1104
1021 1105
1021 1119
1021 1121
1021 1123
1021 1134
1021 1144
1021 1145
1021 1158
1021 1163
1021 1177
1021 1182
1021 1184
1022 1034
1022 1038
1022 1040
1022 1059
1022 1079
1022 1085
1022 1090
1022 1093
1022 1107
1022 1120
1022 1125
1022 1135
1022 1142
1022 1158
1022 1175
1022 1192
1023 1024
1023 1025
1023 1028
1023 1037
1023 1038
1023 1039
1023 1064
1023 1066
1023 1082
1023 1090
1023 1099
1023 1100
1023 1101
1023 1135
1023 1139
1023 1146
1023 1147
1023 1152
1023 1158
1023 1161
1023 1163
1023 1170
1023 1176
1023 1177
1023 1188
1024 1047
1024 1058
1024 1059
1024 1061
1024 1067
1024 1070
1024 1074
1024 1123
1024 1124
1024 1134
1024 1137
1024 1141
1024 1144
1024 1145
1024 1153
1024 1161
1024 1163
1024 1167
1024 1180
1024 1197
1025 1038
1025 1040
1025 1062
1025 1071
1025 1094
1025 1113
1025 1114
1025 1141
1025 1149
1025 1151
1025 1155
1025 1156
1025 1199
1026 1045
1026 1053
1026 1068
1026 1073
1026 1081
1026 1087
1026 1095
1026 1096
1026 1103
1026 1115
1026 1118
1026 1134
1026 1143
1026 1159
1026 1166
1026 1167
1026 1181
1026 1194
1027 1031
1027 1037
1027 1039
1027 1040
1027 1045
1027 1047
1027 1053
1027 1074
1027 1087
1027 1093
1027 1104
1027 1126
1027 1130
1027 1145
1027 1146
1027 1157
1027 1173
1027 1181
1027 1189
1027 1196
1028 1043
1028 1054
1028 1055
1028 1057
1028 1059
1028 1067
1028 1087
1028 1093
1028 1100
1028 1119
1028 1129
1028 1149
1028 1176
1029 1047
1029 1060
1029 1061
1029 1074
1029 1078
1029 1081
1029 1089
1029 1094
1029 1104
1029 1106
1029 1136
1029 1138
1029 1148
1029 1155
1029 1167
1029 1175
1029 1188
1030 1049
1030 1054
1030 1065
1030 1067
1030 1069
1030 1073
1030 1078
1030 1084
1030 1085
1030 1086
1030 1094
1030 1110
1030 1112
1030 1129
1030 1133
1030 1136
1030 1137
1030 1139
1030 1149
1030 1151
1030 1166
1030 1171
1030 1172
1030 1175
1030 1183
1030 1186
1030 1194
1030 1758
1031 1037
1031 1046
1031 1061
1031 1114
1031 1119
1031 1126
1031 1129
1031 1140
1031 1142
1031 1147
1031 1177
1031 1188
1031 1191
1032 1034
1032 1036
1032 1040
1032 1053
1032 1060
1032 1073
1032 1074
1032 1076
1032 1080
1032 1084
1032 1085
1032 1091
1032 1095
1032 1097
1032 1107
1032 1117
1032 1138
1032 1174
1032 1177
1032 1598
1033 1036
1033 1040
1033 1044
1033 1071
1033 1076
1033 1079
1033 1091
1033 1107
1033 1112
1033 1135
1033 1164
1033 1166
1033 1171
1033 1178
1033 1188
1033 1192
1034 1039
1034 1041
1034 1053
1034 1060
1034 1062
1034 1068
1034 1069
1034 1079
1034 1081
1034 1089
1034 1097
1034 1099
1034 1109
1034 1125
1034 1127
1034 1146
1034 1180
1034 1190
1034 1191
1034 1195
1034 1199
1035 1042
1035 1049
1035 1052
1035 1069
1035 1079
1035 1094
1035 1099
1035 1117
1035 1121
1035 1126
1035 1132
1035 1152
1035 1155
1035 1162
1035 1173
1036 1052
1036 1060
1036 1068
1036 1077
1036 1088
1036 1116
1036 1122
1036 1129
1036 1138
1036 1153
1036 1159
1036 1169
1036 1171
1036 1176
1036 1181
1036 1187
1036 1190
1036 1194
1037 1038
1037 1044
1037 1046
1037 1056
1037 1057
1037 1065
1037 1067
1037 1095
1037 1112
1037 1115
1037 1116
1037 1118
1037 1142
1037 1143
1037 1146
1037 1152
1037 1165
1037 1166
1037 1171
1037 1172
1037 1174
1037 1175
1037 1177
1037 1178
1037 1181
1038 1052
1038 1056
1038 1057
1038 1058
1038 1065
1038 1068
1038 1075
1038 1081
1038 1086
1038 1094
1038 1099
1038 1104
1038 1111
1038 1112
1038 1114
1038 1126
1038 1137
1038 1138
1038 1147
1038 1149
1038 1162
1038 1175
1038 1188
1038 1189
1038 1196
1038 1197
1039 1041
1039 1056
1039 1062
1039 1073
1039 1075
1039 1086
1039 1090
1039 1095
1039 1096
1039 1097
1039 1113
1039 1123
1039 1134
1039 1141
1039 1156
1039 1191
1039 1192
1039 1844
1040 1044
1040 1050
1040 1052
1040 1053
1040 1072
1040 1075
1040 1076
1040 1079
1040 1083
1040 1097
1040 1109
1040 1118
1040 1137
1040 1143
1040 1155
1040 1157
1040 1159
1040 1179
1040 1183
1040 1192
1041 1057
1041 1071
1041 1082
1041 1098
1041 1100
1041 1111
1041 1114
1041 1117
1041 1119
1041 1122
1041 1140
1041 1197
1042 1046
1042 1052
1042 1063
1042 1073
1042 1075
1042 1079
1042 1112
1042 1117
1042 1130
1042 1135
1042 1136
1042 1154
1042 1161
1042 1164
1042 1171
1042 1173
1042 1177
1042 1199
1043 1052
1043 1066
1043 1068
1043 1077
1043 1086
1043 1090
1043 1091
1043 1094
1043 1113
1043 1120
1043 1133
1043 1140
1043 1165
1043 1173
1043 1177
1043 1190
1043 1191
1044 1045
1044 1046
1044 1061
1044 1063
1044 1068
1044 1085
1044 1087
1044 1096
1044 1113
1044 1121
1044 1124
1044 1126
1044 1147
1044 1173
1044 1179
1044 1191
1045 1053
1045 1067
1045 1075
1045 1076
1045 1080
1045 1124
1045 1146
1045 1147
1045 1148
1045 1150
1045 1162
1045 1171
1045 1177
1045 1187
1045 1188
1046 1066
1046 1082
1046 1095
1046 1096
1046 1098
1046 1102
1046 1132
1046 1141
1046 1149
1046 1172
1046 1180
1046 1181
1046 1182
1046 1183
1046 1185
1046 1192
1046 1199
1047 1056
1047 1068
1047 1073
1047 1088
1047 1089
1047 1100
1047 1106
1047 1112
1047 1124
1047 1130
1047 1135
1047 1136
1047 1147
1047 1164
1047 1169
1047 1173
1047 1180
1047 1186
1047 1189
1047 1197
1048 1067
1048 1076
1048 1079
1048 1086
1048 1089
1048 1095
1048 1105
1048 1107
1048 1111
1048 1123
1048 1125
1048 1133
1048 1134
1048 1139
1048 1140
1048 1150
1048 1154
1048 1157
1048 1171
1048 1180
1048 1198
1049 1052
1049 1054
1049 1059
1049 1061
1049 1065
1049 1081
1049 1089
1049 1103
1049 1107
1049 1109
1049 1110
1049 1117
1049 1118
1049 1139
1049 1140
1049 1189
1049 1190
1049 1199
1050 1085
1050 1093
1050 1116
1050 1118
1050 1168
1050 1192
1050 1197
1050 1199
1050 1799
1051 1067
1051 1078
1051 1081
1051 1085
1051 1099
1051 1101
1051 1121
1051 1146
1051 1165
1051 1169
1051 1173
1051 1181
1051 1183
1051 1190
1051 1197
1052 1056
1052 1058
1052 1060
1052 1071
1052 1072
1052 1075
1052 1082
1052 1126
1052 1163
1052 1171
1052 1172
1052 1175
1052 1184
1052 1199
1053 1056
1053 1090
1053 1104
1053 1105
1053 1132
1053 1142
1053 1150
1053 1153
1053 1164
1053 1175
1053 1176
1053 1195
1054 1061
1054 1066
1054 1078
1054 1098
1054 1108
1054 1113
1054 1120
1054 1122
1054 1125
1054 1136
1054 1140
1054 1141
1054 1142
1054 1144
1054 1175
1054 1177
1054 1184
1054 1196
1055 1056
1055 1059
1055 1063
1055 1073
1055 1080
1055 1083
1055 1086
1055 1102
1055 1103
1055 1111
1055 1119
1055 1135
1055 1136
1055 1137
1055 1140
1055 1152
1055 1166
1055 1173
1055 1180
1055 1183
1055 1194
1056 1075
1056 1083
1056 1119
1056 1140
1056 1148
1056 1149
1056 1150
1056 1155
1056 1179
1056 1180
1057 1058
1057 1067
1057 1068
1057 1070
1057 1077
1057 1086
1057 1089
1057 1094
1057 1095
1057 1097
1057 1114
1057 1152
1057 1154
1057 1158
1057 1164
1057 1171
1057 1194
1058 1076
1058 1078
1058 1117
1058 1123
1058 1127
1058 1153
1058 1162
1058 1164
1058 1193
1059 1075
1059 1113
1059 1120
1059 1127
1059 1128
1059 1130
1059 1141
1059 1144
1059 1150
1059 1163
1059 1180
1059 1188
1059 1191
1059 1194
1060 1108
1060 1126
1060 1137
1060 1146
1060 1147
1060 1157
1060 1169
1060 1176
1060 1178
1060 1183
1061 1067
1061 1070
1061 1078
1061 1087
1061 1106
1061 1115
1061 1138
1061 1165
1061 1182
1062 1071
1062 1092
1062 1121
1062 1159
1062 1163
1062 1164
1062 1169
1062 1178
1062 1189
1063 1070
1063 1078
1063 1083
1063 1092
1063 1109
1063 1113
1063 1129
1063 1149
1063 1155
1063 1164
1063 1166
1063 1183
1063 1193
1063 1196
1064 1086
1064 1089
1064 1108
1064 1116
1064 1150
1064 1176
1064 1178
1064 1192
1064 1194
1064 1196
1065 1087
1065 1094
1065 1113
1065 1134
1065 1140
1065 1143
1065 1150
1065 1155
1065 1156
1065 1195
1066 1148
1066 1157
1066 1163
1066 1178
1066 1179
1066 1181
1066 1182
1067 1085
1067 1096
1067 1110
1067 1113
1067 1115
1067 1118
1067 1130
1067 1140
1067 1184
1067 1186
1067 1193
1067 1198
1068 1076
1068 1077
1068 1078
1068 1086
1068 1092
1068 1093
1068 1098
1068 1104
1068 1105
1068 1119
1068 1123
1068 1129
1068 1139
1068 1141
1068 1149
1068 1152
1068 1155
1068 1159
1068 1161
1068 1173
1068 1175
1068 1196
1069 1106
1069 1125
1069 1131
1069 1134
1069 1186
1069 1197
1070 1107
1070 1108
1070 1114
1070 1131
1070 1139
1070 1140
1070 1145
1070 1166
1070 1169
1070 1172
1070 1173
1070 1188
1071 1115
1071 1140
1071 1142
1071 1144
1071 1145
1071 1146
1071 1168
1071 1182
1071 1184
1071 1188
1071 1193
1071 1199
1072 1095
1072 1097
1072 1098
1072 1107
1072 1115
1072 1120
1072 1128
1072 1135
1072 1143
1072 1155
1072 1164
1072 1176
1072 1193
1072 1199
1073 1078
1073 1083
1073 1088
1073 1116
1073 1118
1073 1123
1073 1129
1073 1134
1073 1136
1073 1137
1073 1138
1073 1141
1073 1142
1073 1149
1073 1151
1073 1158
1073 1160
1073 1163
1073 1182
1074 1086
1074 1104
1074 1113
1074 1129
1074 1130
1074 1132
1074 1145
1074 1147
1074 1150
1074 1167
1074 1178
1074 1192
1075 1080
1075 1082
1075 1098
1075 1104
1075 1105
1075 1107
1075 1114
1075 1116
1075 1119
1075 1148
1075 1158
1075 1161
1075 1168
1075 1179
1075 1182
1075 1192
1075 1194
1075 1195
1076 1114
1076 1121
1076 1126
1076 1146
1076 1151
1076 1159
1076 1168
1076 1176
1076 1192
1077 1095
1077 1107
1077 1112
1077 1118
1077 1129
1077 1139
1077 1142
1077 1143
1077 1145
1077 1162
1077 1166
1077 1180
1078 1080
1078 1090
1078 1094
1078 1096
1078 1118
1078 1124
1078 1134
1078 1144
1078 1155
1078 1157
1078 1198
1079 1081
1079 1087
1079 1098
1079 1112
1079 1121
1079 1130
1079 1156
1079 1173
1079 1178
1079 1194
1079 1196
1079 1199
1080 1082
1080 1096
1080 1104
1080 1117
1080 1152
1080 1158
1080 1169
1080 1170
1080 1175
1080 1188
1080 1192
1080 1195
1081 1082
1081 1083
1081 1094
1081 1101
1081 1102
1081 1108
1081 1109
1081 1125
1081 1131
1081 1140
1081 1155
1081 1173
1081 1187
1082 1084
1082 1093
1082 1104
1082 1139
1082 1147
1082 1169
1082 1189
1082 1195
1083 1131
1083 1139
1083 1183
1083 1190
1084 1085
1084 1097
1084 1129
1084 1140
1084 1146
1084 1150
1084 1164
1084 1165
1084 1167
1084 1176
1084 1179
1084 1197
1085 1092
1085 1098
1085 1106
1085 1118
1085 1133
1085 1155
1085 1160
1085 1164
1085 1172
1085 1189
1085 1198
1086 1101
1086 1102
1086 1108
1086 1114
1086 1117
1086 1120
1086 1129
1086 1141
1086 1148
1086 1164
1086 1165
1086 1174
1086 1185
1086 1199
1087 1089
1087 1110
1087 1114
1087 1132
1087 1146
1087 1167
1087 1189
1087 1802
1088 1105
1088 1128
1088 1131
1088 1135
1088 1139
1088 1143
1088 1153
1088 1154
1088 1175
1089 1114
1089 1117
1089 1118
1089 1146
1089 1168
1089 1190
1089 1197
1089 1199
1090 1098
1090 1100
1090 1102
1090 1103
1090 1111
1090 1113
1090 1122
1090 1126
1090 1127
1090 1134
1090 1141
1090 1166
1090 1171
1090 1193
1091 1099
1091 1102
1091 1106
1091 1108
1091 1109
1091 1117
1091 1124
1091 1127
1091 1140
1091 1152
1091 1157
1091 1162
1091 1163
1091 1165
1091 1173
1091 1177
1091 1187
1092 1098
1092 1101
1092 1105
1092 1148
1092 1165
1092 1166
1092 1169
1092 1180
1092 1191
1092 1196
1092 1199
1093 1098
1093 1102
1093 1103
1093 1105
1093 1109
1093 1111
1093 1115
1093 1145
1093 1151
1093 1164
1093 1179
1094 1096
1094 1119
1094 1128
1094 1168
1094 1172
1094 1175
1094 1186
1094 1192
1094 1197
1094 1198
1094 1199
1095 1096
1095 1107
1095 1113
1095 1124
1095 1128
1095 1171
1095 1186
1095 1191
1096 1098
1096 1108
1096 1109
1096 1121
1096 1124
1096 1136
1096 1137
1096 1144
1096 1154
1096 1155
1096 1170
1096 1185
1096 1187
1097 1105
1097 1119
1097 1122
1097 1136
1097 1141
1097 1159
1097 1189
1097 1197
1098 1101
1098 1112
1098 1120
1098 1121
1098 1130
1098 1131
1098 1161
1098 1167
1098 1184
1098 1192
1098 1195
1099 1105
1099 1116
1099 1117
1099 1129
1099 1130
1099 1133
1099 1149
1099 1151
1099 1155
1099 1171
1099 1181
1100 1105
1100 1110
1100 1116
1100 1126
1100 1128
1100 1154
1100 1160
1100 1164
1100 1185
1100 1189
1101 1108
1101 1125
1101 1129
1101 1144
1101 1145
1101 1169
1101 1177
1101 1195
1101 1199
1102 1121
1102 1126
1102 1131
1102 1145
1102 1150
1102 1155
1102 1157
1102 1164
1102 1168
1103 1115
1103 1124
1103 1127
1103 1137
1103 1144
1103 1150
1103 1173
1103 1181
1103 1183
1104 1124
1104 1133
1104 1137
1104 1141
1104 1156
1104 1166
1104 1168
1104 1180
1104 1182
1104 1184
1104 1190
1104 1192
1104 1193
1105 1106
1105 1107
1105 1116
1105 1120
1105 1138
1105 1151
1105 1169
1105 1183
1106 1117
1106 1129
1106 1153
1106 1159
1106 1166
1106 1177
1106 1186
1106 1187
1107 1146
1107 1148
1107 1157
1107 1182
1107 1183
1107 1193
1107 1194
1107 1195
1108 1116
1108 1118
1108 1130
1108 1133
1108 1138
1108 1140
1108 1176
1108 1181
1108 1195
1109 1111
1109 1113
1109 1161
1109 1191
1110 1122
1110 1124
1110 1126
1110 1135
1110 1141
1110 1150
1110 1151
1110 1160
1110 1172
1110 1183
1110 1190
1111 1133
1111 1136
1111 1137
1111 1142
1111 1147
1111 1152
1111 1157
1111 1162
1111 1164
1111 1167
1111 1171
1111 1199
1112 1123
1112 1140
1112 1142
1112 1149
1112 1153
1112 1163
1112 1165
1112 1173
1112 1176
1113 1128
1113 1137
1113 1165
1113 1183
1113 1188
1113 1199
1114 1116
1114 1120
1114 1127
1114 1133
1114 1147
1114 1151
1114 1154
1114 1160
1114 1164
1114 1167
1114 1175
1114 1178
1114 1180
1114 1182
1115 1126
1115 1142
1115 1145
1115 1146
1115 1153
1115 1155
1115 1163
1115 1172
1115 1192
1115 1198
1116 1138
1116 1143
1116 1150
1116 1156
1116 1191
1117 1125
1117 1126
1117 1133
1117 1141
1117 1143
1117 1150
1117 1162
1118 1122
1118 1127
1118 1151
1118 1154
1118 1162
1118 1171
1118 1176
1118 1193
1118 1197
1119 1123
1119 1129
1119 1131
1119 1132
1119 1138
1119 1147
1119 1158
1119 1163
1119 1175
1119 1177
1120 1126
1120 1130
1120 1132
1120 1134
1120 1142
1120 1169
1120 1176
1120 1186
1120 1192
1121 1128
1121 1144
1121 1159
1121 1171
1122 1132
1122 1138
1122 1141
1122 1149
1122 1159
1122 1176
1122 1188
1122 1192
1122 1193
1122 1247
1123 1125
1123 1152
1123 1153
1123 1156
1123 1158
1123 1171
1123 1190
1124 1128
1124 1145
1124 1156
1124 1174
1124 1176
1124 1178
1124 1188
1124 1192
1125 1138
1125 1142
1125 1162
1125 1178
1125 1181
1125 1184
1126 1153
1126 1164
1126 1187
1126 1198
1127 1140
1127 1141
1127 1148
1127 1164
1127 1172
1127 1190
1127 1197
1128 1173
1128 1177
1128 1195
1128 1198
1129 1136
1129 1156
1130 1133
1130 1138
1130 1149
1130 1158
1130 1174
1130 1175
1130 1182
1130 1198
1131 1138
1131 1146
1131 1154
1131 1161
1131 1174
1131 1179
1131 1186
1132 1133
1132 1142
1132 1148
1132 1160
1132 1162
1132 1164
1132 1170
1132 1178
1133 1138
1133 1140
1133 1147
1133 1153
1133 1169
1133 1181
1133 1189
1133 1195
1134 1136
1134 1139
1134 1140
1134 1145
1134 1159
1134 1164
1134 1168
1134 1185
1134 1187
1134 1193
1134 1199
1134 1295
1135 1140
1135 1145
1135 1160
1135 1161
1135 1176
1135 1194
1136 1143
1136 1146
1136 1147
1136 1149
1136 1151
1136 1152
1136 1158
1136 1163
1136 1164
1136 1169
1136 1174
1136 1179
1136 1186
1137 1150
1137 1153
1137 1161
1137 1165
1137 1166
1137 1176
1137 1181
1137 1188
1137 1197
1138 1139
1138 1141
1138 1144
1138 1153
1138 1159
1138 1161
1138 1166
1138 1180
1138 1181
1138 1198
1139 1144
1139 1150
1139 1154
1139 1172
1139 1187
1139 1190
1139 1191
1140 1169
1140 1185
1141 1154
1141 1169
1141 1174
1141 1176
1141 1182
1141 1198
1142 1152
1142 1196
1142 1198
1143 1145
1143 1146
1144 1156
1144 1164
1144 1182
1145 1157
1145 1161
1145 1163
1145 1177
1145 1181
1145 1190
1145 1199
1146 1176
1146 1186
1146 1188
1146 1191
1146 1197
1147 1154
1147 1171
1147 1176
1147 1181
1147 1191
1147 1193
1147 1197
1148 1161
1148 1166
1148 1167
1148 1169
1148 1177
1148 1187
1148 1194
1148 1195
1148 1199
1149 1157
1149 1163
1149 1165
1149 1181
1149 1183
1149 1184
1149 1191
1149 1193
1149 1196
1149 1198
1150 1157
1150 1185
1151 1153
1151 1157
1151 1166
1151 1198
1152 1179
1152 1180
1152 1188
1153 1166
1153 1178
1153 1181
1153 1185
1153 1188
1153 1192
1153 1193
1154 1169
1154 1197
1155 1168
1155 1169
1155 1179
1155 1181
1155 1189
1155 1194
1156 1163
1156 1164
1156 1182
1156 1187
1156 1190
1157 1164
1157 1173
1157 1181
1157 1189
1158 1159
1158 1162
1158 1164
1158 1179
1158 1185
1158 1188
1158 1197
1158 1199
1159 1170
1159 1173
1159 1176
1159 1180
1159 1183
1159 1192
1159 1227
1160 1165
1160 1173
1160 1187
1160 1195
1160 1196
1161 1163
1161 1167
1161 1176
1161 1194
1161 1195
1162 1166
1162 1171
1162 1188
1163 1170
1163 1182
1163 1183
1164 1183
1164 1190
1165 1167
1165 1181
1166 1188
1167 1184
1167 1185
1167 1187
1167 1197
1167 1199
1168 1170
1168 1179
1168 1189
1169 1170
1169 1176
1170 1183
1170 1195
1171 1189
1171 1198
1172 1180
1172 1193
1173 1174
1173 1180
1173 1193
1173 1195
1174 1178
1174 1181
1175 1185
1175 1196
1176 1194
1177 1181
1177 1196
1177 1199
1178 1181
1178 1195
1179 1183
1179 1194
1179 1195
1179 1196
1180 1190
1180 1191
1180 1195
1181 1193
1182 1184
1184 1195
1186 1190
1186 1194
1186 1199
1187 1193
1187 1197
1188 1189
1188 1193
1188 1195
1188 1197
1191 1193
1191 1199
1193 1198
1195 1198
1197 1199
1200 1204
1200 1205
1200 1225
1200 1228
1200 1234
1200 1236
1200 1247
1200 1274
1200 1275
1200 1276
1200 1277
1200 1279
1200 1284
1200 1289
1200 1293
1200 1294
1200 1298
1200 1308
1200 1309
1200 1311
1200 1314
1200 1327
1200 1331
1200 1337
1200 1364
1200 1375
1200 1382
1200 1385
1200 1389
1200 1404
1200 1419
1200 1424
1200 1427
1200 1452
1200 1454
1200 1466
1200 1470
1200 1488
1200 1499
1200 1508
1200 1510
1200 1513
1200 1515
1200 1533
1200 1550
1200 1553
1200 1564
1200 1566
1200 1568
1200 1572
1201 1210
1201 1216
1201 1223
1201 1226
1201 1233
1201 1236
1201 1249
1201 1256
1201 1263
1201 1264
1201 1275
1201 1276
1201 1298
1201 1300
1201 1303
1201 1328
1201 1341
1201 1342
1201 1345
1201 1348
1201 1353
1201 1355
1201 1360
1201 1368
1201 1381
1201 1389
1201 1390
1201 1396
1201 1422
1201 1423
1201 1451
1201 1480
1201 1494
1201 1496
1201 1505
1201 1519
1201 1522
1201 1523
1201 1544
1201 1578
1201 1591
1201 1599
1202 1204
1202 1209
1202 1212
1202 1215
1202 1219
1202 1247
1202 1250
1202 1271
1202 1280
1202 1291
1202 1306
1202 1309
1202 1332
1202 1333
1202 1338
1202 1341
1202 1346
1202 1365
1202 1366
1202 1372
1202 1381
1202 1383
1202 1387
1202 1397
1202 1410
1202 1433
1202 1437
1202 1439
1202 1451
1202 1458
1202 1463
1202 1482
1202 1503
1202 1504
1202 1524
1202 1526
1202 1532
1202 1537
1202 1545
1202 1587
1202 1590
1202 1591
1203 1206
1203 1218
1203 1221
1203 1223
1203 1229
1203 1251
1203 1252
1203 1259
1203 1264
1203 1283
1203 1288
1203 1294
1203 1314
1203 1368
1203 1372
1203 1394
1203 1418
1203 1426
1203 1431
1203 1448
1203 1449
1203 1452
1203 1461
1203 1466
1203 1468
1203 1473
1203 1493
1203 1519
1203 1529
1203 1547
1203 1565
1203 1569
1204 1212
1204 1216
1204 1228
1204 1241
1204 1243
1204 1247
1204 1258
1204 1261
1204 1263
1204 1279
1204 1283
1204 1284
1204 1285
1204 1289
1204 1300
1204 1301
1204 1304
1204 1315
1204 1324
1204 1337
1204 1343
1204 1361
1204 1376
1204 1392
1204 1424
1204 1456
1204 1457
1204 1465
1204 1473
1204 1476
1204 1482
1204 1494
1204 1503
1204 1505
1204 1519
1204 1521
1204 1526
1204 1528
1204 1534
1204 1544
1204 1551
1204 1568
1204 1574
1204 1582
1204 1591
1205 1210
1205 1226
1205 1231
1205 1292
1205 1308
1205 1314
1205 1375
1205 1377
1205 1396
1205 1398
1205 1399
1205 1416
1205 1426
1205 1439
1205 1443
1205 1446
1205 1448
1205 1449
1205 1452
1205 1456
1205 1472
1205 1473
1205 1477
1205 1489
1205 1497
1205 1498
1205 1504
1205 1505
1205 1554
1205 1568
1205 1574
1205 1588
1205 1599
1206 1223
1206 1225
1206 1229
1206 1235
1206 1236
1206 1240
1206 1243
1206 1253
1206 1269
1206 1286
1206 1304
1206 1313
1206 1316
1206 1321
1206 1331
1206 1340
1206 1354
1206 1362
1206 1363
1206 1366
1206 1369
1206 1376
1206 1402
1206 1422
1206 1426
1206 1428
1206 1443
1206 1458
1206 1503
1206 1504
1206 1511
1206 1522
1206 1525
1206 1526
1206 1548
1206 1552
1206 1554
1206 1555
1206 1588
1207 1229
1207 1234
1207 1244
1207 1273
1207 1298
1207 1304
1207 1337
1207 1350
1207 1359
1207 1366
1207 1368
1207 1380
1207 1383
1207 1388
1207 1389
1207 1446
1207 1453
1207 1464
1207 1467
1207 1472
1207 1495
1207 1500
1207 1509
1207 1514
1207 1518
1207 1534
1207 1538
1207 1541
1207 1564
1207 1583
1207 1589
1207 1590
1208 1209
1208 1221
1208 1224
1208 1229
1208 1238
1208 1243
1208 1253
1208 1271
1208 1272
1208 1293
1208 1307
1208 1308
1208 1323
1208 1331
1208 1332
1208 1351
1208 1353
1208 1355
1208 1371
1208 1381
1208 1382
1208 1383
1208 1413
1208 1423
1208 1424
1208 1438
1208 1446
1208 1454
1208 1460
1208 1463
1208 1486
1208 1504
1208 1519
1208 1529
1208 1538
1208 1546
1208 1560
1208 1562
1208 1563
1208 1572
1208 1585
1208 1587
1208 1592
1209 1219
1209 1244
1209 1251
1209 1271
1209 1296
1209 1299
1209 1328
1209 1335
1209 1337
1209 1340
1209 1343
1209 1348
1209 1351
1209 1364
1209 1377
1209 1389
1209 1392
1209 1393
1209 1394
1209 1399
1209 1413
1209 1417
1209 1426
1209 1445
1209 1452
1209 1469
1209 1476
1209 1488
1209 1498
1209 1499
1209 1526
1209 1532
1209 1547
1209 1559
1209 1575
1209 1584
1209 1585
1209 1590
1209 1599
1210 1237
1210 1240
1210 1251
1210 1261
1210 1268
1210 1271
1210 1273
1210 1292
1210 1303
1210 1318
1210 1327
1210 1330
1210 1340
1210 1374
1210 1391
1210 1403
1210 1409
1210 1411
1210 1417
1210 1442
1210 1486
1210 1488
1210 1520
1210 1525
1210 1530
1210 1538
1210 1553
1210 1569
1211 1225
1211 1227
1211 1240
1211 1242
1211 1248
1211 1251
1211 1277
1211 1289
1211 1293
1211 1294
1211 1303
1211 1315
1211 1328
1211 1346
1211 1380
1211 1406
1211 1407
1211 1417
1211 1428
1211 1437
1211 1441
1211 1449
1211 1452
1211 1456
1211 1471
1211 1477
1211 1481
1211 1482
1211 1485
1211 1491
1211 1502
1211 1511
1211 1532
1211 1548
1211 1557
1211 1561
1211 1588
1212 1223
1212 1228
1212 1289
1212 1304
1212 1327
1212 1332
1212 1336
1212 1337
1212 1345
1212 1349
1212 1362
1212 1372
1212 1383
1212 1390
1212 1392
1212 1413
1212 1415
1212 1424
1212 1429
1212 1430
1212 1431
1212 1441
1212 1452
1212 1462
1212 1481
1212 1495
1212 1504
1212 1505
1212 1510
1212 1517
1212 1523
1212 1532
1212 1543
1212 1557
1212 1566
1213 1219
1213 1221
1213 1228
1213 1235
1213 1250
1213 1251
1213 1262
1213 1263
1213 1277
1213 1288
1213 1295
1213 1308
1213 1310
1213 1320
1213 1340
1213 1345
1213 1356
1213 1372
1213 1382
1213 1406
1213 1469
1213 1472
1213 1490
1213 1495
1213 1501
1213 1514
1213 1534
1213 1536
1213 1542
1213 1558
1213 1563
1213 1577
1213 1584
1213 1585
1213 1587
1213 1591
1213 1800
1214 1222
1214 1259
1214 1269
1214 1282
1214 1286
1214 1298
1214 1307
1214 1310
1214 1338
1214 1342
1214 1345
1214 1375
1214 1380
1214 1392
1214 1411
1214 1412
1214 1424
1214 1432
1214 1435
1214 1444
1214 1457
1214 1460
1214 1471
1214 1479
1214 1492
1214 1497
1214 1512
1214 1516
1214 1522
1214 1535
1214 1537
1214 1540
1214 1545
1214 1547
1214 1548
1214 1561
1214 1568
1214 1578
1214 1593
1214 1595
1214 1598
1215 1216
1215 1220
1215 1237
1215 1241
1215 1247
1215 1249
1215 1250
1215 1282
1215 1304
1215 1313
1215 1315
1215 1328
1215 1338
1215 1339
1215 1343
1215 1350
1215 1379
1215 1405
1215 1411
1215 1414
1215 1418
1215 1428
1215 1447
1215 1452
1215 1471
1215 1485
1215 1487
1215 1497
1215 1506
1215 1510
1215 1547
1215 1557
1215 1566
1215 1567
1216 1245
1216 1251
1216 1256
1216 1259
1216 1263
1216 1266
1216 1275
1216 1313
1216 1338
1216 1362
1216 1376
1216 1393
1216 1435
1216 1448
1216 1455
1216 1461
1216 1462
1216 1470
1216 1485
1216 1487
1216 1491
1216 1495
1216 1496
1216 1505
1216 1508
1216 1509
1216 1526
1216 1530
1216 1541
1216 1546
1216 1555
1216 1562
1216 1577
1216 1581
1216 1582
1216 1586
1217 1225
1217 1227
1217 1240
1217 1257
1217 1261
1217 1262
1217 1264
1217 1287
1217 1295
1217 1300
1217 1302
1217 1311
1217 1314
1217 1326
1217 1333
1217 1348
1217 1363
1217 1372
1217 1375
1217 1403
1217 1406
1217 1423
1217 1424
1217 1428
1217 1432
1217 1447
1217 1466
1217 1472
1217 1473
1217 1483
1217 1487
1217 1507
1217 1517
1217 1521
1217 1524
1217 1532
1217 1533
1217 1545
1217 1553
1217 1593
1217 1595
1218 1220
1218 1240
1218 1249
1218 1272
1218 1290
1218 1295
1218 1306
1218 1307
1218 1310
1218 1336
1218 1338
1218 1352
1218 1369
1218 1373
1218 1378
1218 1380
1218 1396
1218 1402
1218 1413
1218 1423
1218 1439
1218 1466
1218 1469
1218 1470
1218 1471
1218 1485
1218 1486
1218 1501
1218 1515
1218 1535
1218 1544
1218 1558
1218 1570
1218 1576
1219 1221
1219 1224
1219 1225
1219 1244
1219 1245
1219 1250
1219 1255
1219 1258
1219 1271
1219 1289
1219 1297
1219 1305
1219 1307
1219 1327
1219 1330
1219 1350
1219 1354
1219 1369
1219 1376
1219 1386
1219 1412
1219 1418
1219 1428
1219 1434
1219 1441
1219 1453
1219 1457
1219 1468
1219 1474
1219 1494
1219 1501
1219 1503
1219 1509
1219 1521
1219 1537
1219 1540
1219 1543
1219 1544
1219 1549
1219 1560
1219 1561
1219 1598
1220 1234
1220 1239
1220 1250
1220 1253
1220 1272
1220 1274
1220 1279
1220 1282
1220 1286
1220 1288
1220 1290
1220 1298
1220 1301
1220 1305
1220 1314
1220 1326
1220 1343
1220 1347
1220 1349
1220 1354
1220 1359
1220 1366
1220 1371
1220 1383
1220 1385
1220 1387
1220 1396
1220 1400
1220 1410
1220 1411
1220 1418
1220 1429
1220 1431
1220 1433
1220 1448
1220 1469
1220 1481
1220 1484
1220 1500
1220 1507
1220 1516
1220 1533
1220 1547
1220 1564
1220 1582
1221 1230
1221 1255
1221 1287
1221 1291
1221 1309
1221 1315
1221 1320
1221 1327
1221 1334
1221 1349
1221 1358
1221 1363
1221 1384
1221 1427
1221 1445
1221 1447
1221 1449
1221 1453
1221 1455
1221 1459
1221 1477
1221 1512
1221 1536
1221 1541
1221 1550
1221 1577
1221 1582
1221 1587
1222 1256
1222 1262
1222 1267
1222 1300
1222 1313
1222 1319
1222 1339
1222 1343
1222 1357
1222 1377
1222 1379
1222 1393
1222 1416
1222 1424
1222 1437
1222 1451
1222 1457
1222 1458
1222 1472
1222 1492
1222 1493
1222 1495
1222 1506
1222 1520
1222 1521
1222 1525
1222 1537
1222 1552
1222 1569
1222 1581
1223 1232
1223 1246
1223 1271
1223 1279
1223 1328
1223 1333
1223 1338
1223 1347
1223 1349
1223 1356
1223 1364
1223 1382
1223 1388
1223 1394
1223 1396
1223 1400
1223 1402
1223 1403
1223 1414
1223 1415
1223 1423
1223 1437
1223 1454
1223 1477
1223 1485
1223 1490
1223 1493
1223 1494
1223 1508
1223 1509
1223 1519
1223 1531
1223 1538
1223 1545
1223 1554
1223 1557
1223 1561
1223 1573
1223 1582
1223 1587
1224 1229
1224 1232
1224 1246
1224 1254
1224 1255
1224 1262
1224 1263
1224 1283
1224 1293
1224 1309
1224 1316
1224 1319
1224 1320
1224 1331
1224 1347
1224 1352
1224 1355
1224 1359
1224 1362
1224 1368
1224 1378
1224 1381
1224 1413
1224 1416
1224 1420
1224 1452
1224 1474
1224 1475
1224 1478
1224 1480
1224 1494
1224 1495
1224 1516
1224 1531
1224 1546
1224 1548
1224 1571
1224 1572
1224 1581
1224 1582
1224 1586
1224 1596
1225 1245
1225 1246
1225 1248
1225 1251
1225 1294
1225 1304
1225 1308
1225 1309
1225 1325
1225 1336
1225 1343
1225 1354
1225 1357
1225 1366
1225 1369
1225 1378
1225 1419
1225 1437
1225 1438
1225 1445
1225 1456
1225 1465
1225 1492
1225 1503
1225 1515
1225 1521
1225 1524
1225 1568
1225 1571
1225 1579
1225 1586
1225 1592
1226 1228
1226 1242
1226 1252
1226 1271
1226 1280
1226 1289
1226 1292
1226 1293
1226 1300
1226 1302
1226 1332
1226 1345
1226 1365
1226 1366
1226 1370
1226 1387
1226 1394
1226 1396
1226 1418
1226 1426
1226 1430
1226 1431
1226 1460
1226 1461
1226 1472
1226 1482
1226 1484
1226 1521
1226 1524
1226 1526
1226 1527
1226 1530
1226 1566
1226 1588
1227 1232
1227 1247
1227 1251
1227 1259
1227 1263
1227 1293
1227 1296
1227 1324
1227 1348
1227 1353
1227 1354
1227 1361
1227 1364
1227 1366
1227 1367
1227 1386
1227 1388
1227 1390
1227 1395
1227 1407
1227 1410
1227 1412
1227 1419
1227 1420
1227 1455
1227 1458
1227 1463
1227 1473
1227 1483
1227 1512
1227 1519
1227 1520
1227 1535
1227 1536
1227 1552
1227 1572
1227 1589
1227 1591
1227 1594
1227 1599
1228 1238
1228 1240
1228 1242
1228 1260
1228 1272
1228 1282
1228 1325
1228 1332
1228 1346
1228 1363
1228 1392
1228 1424
1228 1433
1228 1445
1228 1465
1228 1489
1228 1490
1228 1496
1228 1503
1228 1552
1228 1570
1228 1582
1229 1251
1229 1254
1229 1256
1229 1277
1229 1301
1229 1308
1229 1309
1229 1321
1229 1333
1229 1339
1229 1354
1229 1377
1229 1378
1229 1392
1229 1395
1229 1411
1229 1417
1229 1419
1229 1425
1229 1438
1229 1439
1229 1452
1229 1468
1229 1478
1229 1485
1229 1497
1229 1521
1229 1534
1229 1538
1229 1542
1229 1557
1229 1561
1229 1567
1229 1573
1229 1588
1229 1590
1230 1234
1230 1243
1230 1244
1230 1275
1230 1277
1230 1294
1230 1308
1230 1314
1230 1326
1230 1358
1230 1362
1230 1377
1230 1411
1230 1413
1230 1414
1230 1415
1230 1418
1230 1440
1230 1450
1230 1453
1230 1457
1230 1463
1230 1467
1230 1505
1230 1522
1230 1531
1230 1555
1230 1556
1230 1574
1230 1576
1230 1598
1231 1269
1231 1272
1231 1276
1231 1280
1231 1305
1231 1321
1231 1325
1231 1337
1231 1340
1231 1355
1231 1366
1231 1372
1231 1380
1231 1383
1231 1385
1231 1403
1231 1404
1231 1405
1231 1408
1231 1413
1231 1424
1231 1441
1231 1444
1231 1448
1231 1452
1231 1456
1231 1458
1231 1459
1231 1471
1231 1475
1231 1488
1231 1490
1231 1512
1231 1521
1231 1538
1231 1551
1231 1554
1231 1558
1231 1573
1231 1586
1231 1671
1232 1239
1232 1240
1232 1243
1232 1259
1232 1263
1232 1272
1232 1273
1232 1276
1232 1278
1232 1282
1232 1284
1232 1314
1232 1326
1232 1333
1232 1352
1232 1353
1232 1356
1232 1393
1232 1394
1232 1401
1232 1411
1232 1455
1232 1459
1232 1461
1232 1473
1232 1483
1232 1485
1232 1487
1232 1491
1232 1501
1232 1508
1232 1515
1232 1522
1232 1537
1232 1555
1232 1567
1232 1568
1232 1577
1232 1579
1232 1582
1232 1599
1233 1245
1233 1272
1233 1279
1233 1284
1233 1291
1233 1298
1233 1307
1233 1323
1233 1348
1233 1350
1233 1352
1233 1364
1233 1366
1233 1373
1233 1395
1233 1410
1233 1418
1233 1419
1233 1423
1233 1426
1233 1461
1233 1475
1233 1476
1233 1493
1233 1509
1233 1517
1233 1530
1233 1540
1233 1557
1233 1576
1234 1241
1234 1243
1234 1255
1234 1258
1234 1266
1234 1291
1234 1299
1234 1303
1234 1328
1234 1332
1234 1338
1234 1341
1234 1347
1234 1373
1234 1380
1234 1384
1234 1389
1234 1393
1234 1414
1234 1420
1234 1422
1234 1457
1234 1489
1234 1498
1234 1523
1234 1529
1234 1530
1234 1535
1234 1548
1234 1549
1234 1552
1234 1558
1234 1563
1234 1566
1234 1570
1234 1588
1234 1595
1235 1236
1235 1241
1235 1247
1235 1254
1235 1261
1235 1265
1235 1268
1235 1286
1235 1295
1235 1302
1235 1306
1235 1312
1235 1322
1235 1352
1235 1370
1235 1377
1235 1390
1235 1404
1235 1408
1235 1427
1235 1431
1235 1436
1235 1442
1235 1471
1235 1477
1235 1485
1235 1488
1235 1495
1235 1501
1235 1504
1235 1524
1235 1531
1235 1544
1235 1546
1235 1550
1235 1567
1235 1575
1235 1580
1235 1588
1235 1589
1235 1593
1235 1597
1235 1598
1236 1243
1236 1256
1236 1268
1236 1272
1236 1279
1236 1292
1236 1305
1236 1318
1236 1324
1236 1336
1236 1339
1236 1354
1236 1363
1236 1366
1236 1379
1236 1394
1236 1397
1236 1403
1236 1407
1236 1414
1236 1416
1236 1417
1236 1424
1236 1429
1236 1466
1236 1472
1236 1483
1236 1490
1236 1492
1236 1501
1236 1507
1236 1533
1236 1544
1236 1549
1236 1593
1237 1257
1237 1269
1237 1270
1237 1275
1237 1280
1237 1284
1237 1287
1237 1288
1237 1300
1237 1317
1237 1334
1237 1349
1237 1353
1237 1355
1237 1358
1237 1365
1237 1380
1237 1389
1237 1399
1237 1412
1237 1420
1237 1458
1237 1462
1237 1485
1237 1488
1237 1519
1237 1537
1237 1541
1237 1560
1237 1562
1237 1571
1237 1572
1237 1575
1237 1578
1237 1585
1237 1593
1238 1244
1238 1248
1238 1271
1238 1279
1238 1281
1238 1290
1238 1297
1238 1299
1238 1315
1238 1323
1238 1324
1238 1332
1238 1351
1238 1356
1238 1365
1238 1376
1238 1397
1238 1407
1238 1413
1238 1418
1238 1424
1238 1443
1238 1450
1238 1457
1238 1465
1238 1485
1238 1490
1238 1491
1238 1495
1238 1498
1238 1504
1238 1535
1238 1542
1238 1563
1238 1564
1238 1576
1238 1583
1238 1596
1239 1240
1239 1254
1239 1255
1239 1283
1239 1284
1239 1304
1239 1307
1239 1311
1239 1322
1239 1330
1239 1342
1239 1344
1239 1382
1239 1416
1239 1421
1239 1424
1239 1453
1239 1456
1239 1479
1239 1490
1239 1514
1239 1528
1239 1536
1239 1542
1239 1556
1239 1559
1239 1565
1239 1582
1239 1585
1239 1599
1240 1250
1240 1264
1240 1271
1240 1292
1240 1300
1240 1302
1240 1304
1240 1305
1240 1324
1240 1330
1240 1332
1240 1334
1240 1337
1240 1344
1240 1348
1240 1357
1240 1365
1240 1367
1240 1379
1240 1381
1240 1382
1240 1386
1240 1390
1240 1406
1240 1410
1240 1411
1240 1412
1240 1416
1240 1417
1240 1420
1240 1431
1240 1442
1240 1448
1240 1449
1240 1453
1240 1456
1240 1457
1240 1459
1240 1465
1240 1475
1240 1477
1240 1485
1240 1491
1240 1519
1240 1524
1240 1526
1240 1529
1240 1531
1240 1534
1240 1541
1240 1548
1240 1562
1240 1565
1240 1586
1241 1278
1241 1283
1241 1291
1241 1294
1241 1299
1241 1302
1241 1316
1241 1319
1241 1325
1241 1327
1241 1336
1241 1344
1241 1350
1241 1352
1241 1355
1241 1357
1241 1359
1241 1360
1241 1369
1241 1376
1241 1386
1241 1396
1241 1408
1241 1422
1241 1437
1241 1481
1241 1496
1241 1517
1241 1523
1241 1527
1241 1549
1241 1550
1241 1555
1241 1569
1241 1576
1241 1584
1241 1585
1241 1588
1241 1597
1242 1243
1242 1249
1242 1251
1242 1252
1242 1272
1242 1275
1242 1280
1242 1287
1242 1289
1242 1297
1242 1313
1242 1326
1242 1330
1242 1348
1242 1372
1242 1384
1242 1416
1242 1418
1242 1420
1242 1422
1242 1430
1242 1436
1242 1448
1242 1461
1242 1473
1242 1489
1242 1500
1242 1516
1242 1517
1242 1528
1242 1550
1242 1569
1242 1574
1242 1593
1242 1597
1243 1247
1243 1252
1243 1259
1243 1261
1243 1269
1243 1276
1243 1282
1243 1286
1243 1320
1243 1326
1243 1331
1243 1336
1243 1340
1243 1354
1243 1362
1243 1366
1243 1376
1243 1392
1243 1404
1243 1405
1243 1413
1243 1420
1243 1422
1243 1425
1243 1432
1243 1438
1243 1445
1243 1454
1243 1475
1243 1477
1243 1482
1243 1487
1243 1492
1243 1497
1243 1498
1243 1503
1243 1504
1243 1506
1243 1512
1243 1526
1243 1545
1243 1572
1243 1576
1243 1594
1243 1596
1243 1598
1244 1250
1244 1270
1244 1283
1244 1284
1244 1285
1244 1288
1244 1311
1244 1325
1244 1329
1244 1349
1244 1365
1244 1376
1244 1382
1244 1398
1244 1409
1244 1418
1244 1422
1244 1427
1244 1448
1244 1451
1244 1452
1244 1456
1244 1460
1244 1462
1244 1472
1244 1480
1244 1494
1244 1497
1244 1504
1244 1506
1244 1513
1244 1514
1244 1516
1244 1539
1244 1590
1244 1594
1244 1595
1244 1598
1245 1263
1245 1288
1245 1313
1245 1326
1245 1329
1245 1383
1245 1389
1245 1395
1245 1401
1245 1417
1245 1446
1245 1483
1245 1488
1245 1495
1245 1519
1245 1528
1245 1545
1245 1547
1245 1555
1245 1556
1245 1557
1245 1566
1245 1567
1245 1568
1245 1573
1245 1585
1245 1587
1245 1595
1246 1249
1246 1257
1246 1274
1246 1291
1246 1306
1246 1316
1246 1322
1246 1323
1246 1325
1246 1330
1246 1347
1246 1351
1246 1357
1246 1390
1246 1391
1246 1400
1246 1412
1246 1428
1246 1437
1246 1448
1246 1484
1246 1489
1246 1517
1246 1519
1246 1525
1246 1535
1246 1548
1246 1551
1246 1555
1246 1565
1246 1597
1247 1253
1247 1288
1247 1290
1247 1301
1247 1314
1247 1334
1247 1335
1247 1342
1247 1357
1247 1363
1247 1369
1247 1376
1247 1380
1247 1382
1247 1390
1247 1393
1247 1399
1247 1416
1247 1418
1247 1419
1247 1436
1247 1440
1247 1452
1247 1463
1247 1485
1247 1489
1247 1501
1247 1506
1247 1507
1247 1533
1247 1556
1247 1565
1247 1566
1247 1596
1247 1598
1248 1256
1248 1262
1248 1265
1248 1270
1248 1280
1248 1285
1248 1286
1248 1291
1248 1295
1248 1306
1248 1337
1248 1360
1248 1368
1248 1370
1248 1371
1248 1385
1248 1394
1248 1397
1248 1405
1248 1410
1248 1421
1248 1437
1248 1440
1248 1456
1248 1462
1248 1464
1248 1477
1248 1497
1248 1501
1248 1509
1248 1510
1248 1518
1248 1521
1248 1534
1248 1539
1248 1548
1248 1554
1248 1559
1248 1573
1248 1577
1248 1584
1249 1295
1249 1297
1249 1316
1249 1329
1249 1356
1249 1357
1249 1366
1249 1379
1249 1393
1249 1408
1249 1412
1249 1428
1249 1437
1249 1438
1249 1440
1249 1449
1249 1457
1249 1465
1249 1467
1249 1508
1249 1522
1249 1533
1249 1535
1249 1539
1249 1543
1249 1562
1249 1564
1249 1565
1249 1576
1249 1578
1249 1586
1250 1253
1250 1258
1250 1263
1250 1267
1250 1281
1250 1282
1250 1289
1250 1298
1250 1309
1250 1322
1250 1326
1250 1327
1250 1336
1250 1340
1250 1344
1250 1353
1250 1369
1250 1372
1250 1385
1250 1395
1250 1396
1250 1397
1250 1408
1250 1434
1250 1442
1250 1447
1250 1449
1250 1452
1250 1459
1250 1480
1250 1505
1250 1506
1250 1522
1250 1567
1250 1584
1250 1590
1251 1254
1251 1255
1251 1262
1251 1272
1251 1277
1251 1286
1251 1287
1251 1298
1251 1316
1251 1323
1251 1329
1251 1340
1251 1343
1251 1347
1251 1348
1251 1366
1251 1374
1251 1386
1251 1395
1251 1397
1251 1401
1251 1404
1251 1443
1251 1454
1251 1457
1251 1468
1251 1470
1251 1476
1251 1483
1251 1486
1251 1490
1251 1491
1251 1492
1251 1496
1251 1504
1251 1507
1251 1524
1251 1536
1251 1548
1251 1550
1251 1551
1251 1556
1251 1558
1251 1566
1251 1581
1251 1583
1251 1591
1251 1595
1251 1599
1252 1253
1252 1255
1252 1264
1252 1269
1252 1276
1252 1290
1252 1295
1252 1313
1252 1318
1252 1319
1252 1320
1252 1322
1252 1323
1252 1325
1252 1334
1252 1336
1252 1337
1252 1349
1252 1351
1252 1393
1252 1395
1252 1397
1252 1412
1252 1415
1252 1443
1252 1444
1252 1454
1252 1457
1252 1461
1252 1482
1252 1492
1252 1504
1252 1522
1252 1543
1252 1553
1252 1579
1252 1588
1252 1598
1253 1260
1253 1261
1253 1266
1253 1271
1253 1272
1253 1278
1253 1301
1253 1304
1253 1305
1253 1310
1253 1331
1253 1341
1253 1352
1253 1375
1253 1377
1253 1381
1253 1394
1253 1398
1253 1423
1253 1428
1253 1441
1253 1448
1253 1462
1253 1464
1253 1474
1253 1476
1253 1507
1253 1508
1253 1527
1253 1551
1253 1556
1253 1559
1253 1572
1253 1583
1254 1262
1254 1267
1254 1269
1254 1270
1254 1275
1254 1277
1254 1300
1254 1310
1254 1316
1254 1326
1254 1345
1254 1351
1254 1354
1254 1361
1254 1362
1254 1366
1254 1371
1254 1373
1254 1379
1254 1426
1254 1430
1254 1455
1254 1486
1254 1492
1254 1494
1254 1506
1254 1516
1254 1518
1254 1520
1254 1521
1254 1531
1254 1540
1254 1542
1254 1553
1254 1556
1254 1557
1254 1569
1254 1581
1254 1593
1254 1595
1254 1599
1255 1257
1255 1266
1255 1286
1255 1296
1255 1322
1255 1330
1255 1338
1255 1341
1255 1348
1255 1350
1255 1354
1255 1365
1255 1368
1255 1376
1255 1380
1255 1395
1255 1414
1255 1434
1255 1440
1255 1450
1255 1452
1255 1456
1255 1478
1255 1480
1255 1484
1255 1498
1255 1501
1255 1519
1255 1520
1255 1526
1255 1535
1255 1538
1255 1548
1255 1552
1255 1563
1255 1590
1255 1591
1255 1594
1255 1597
1255 1875
1256 1262
1256 1272
1256 1281
1256 1287
1256 1289
1256 1305
1256 1306
1256 1324
1256 1331
1256 1339
1256 1375
1256 1376
1256 1381
1256 1399
1256 1402
1256 1406
1256 1407
1256 1409
1256 1423
1256 1434
1256 1456
1256 1460
1256 1475
1256 1488
1256 1494
1256 1497
1256 1509
1256 1510
1256 1527
1256 1529
1256 1537
1256 1563
1256 1567
1256 1585
1256 1590
1256 1595
1256 1596
1257 1259
1257 1288
1257 1310
1257 1318
1257 1336
1257 1339
1257 1348
1257 1356
1257 1359
1257 1368
1257 1380
1257 1385
1257 1399
1257 1403
1257 1409
1257 1411
1257 1412
1257 1420
1257 1431
1257 1434
1257 1437
1257 1442
1257 1449
1257 1450
1257 1455
1257 1467
1257 1471
1257 1478
1257 1504
1257 1506
1257 1527
1257 1528
1257 1533
1257 1540
1257 1541
1257 1544
1257 1548
1257 1550
1257 1565
1257 1583
1258 1261
1258 1266
1258 1273
1258 1294
1258 1308
1258 1314
1258 1315
1258 1321
1258 1335
1258 1348
1258 1350
1258 1355
1258 1358
1258 1382
1258 1397
1258 1403
1258 1408
1258 1423
1258 1426
1258 1443
1258 1451
1258 1453
1258 1459
1258 1477
1258 1480
1258 1485
1258 1492
1258 1503
1258 1509
1258 1520
1258 1528
1258 1529
1258 1544
1258 1555
1258 1570
1258 1582
1258 1584
1258 1589
1258 1592
1259 1267
1259 1269
1259 1273
1259 1285
1259 1290
1259 1302
1259 1309
1259 1310
1259 1315
1259 1337
1259 1340
1259 1341
1259 1348
1259 1365
1259 1366
1259 1368
1259 1373
1259 1379
1259 1391
1259 1399
1259 1415
1259 1421
1259 1452
1259 1466
1259 1468
1259 1469
1259 1486
1259 1492
1259 1505
1259 1533
1259 1546
1259 1549
1259 1550
1259 1560
1259 1572
1259 1574
1259 1586
1259 1592
1260 1268
1260 1288
1260 1289
1260 1317
1260 1347
1260 1358
1260 1361
1260 1373
1260 1380
1260 1382
1260 1385
1260 1400
1260 1408
1260 1414
1260 1421
1260 1430
1260 1445
1260 1450
1260 1451
1260 1473
1260 1491
1260 1523
1260 1527
1260 1533
1260 1542
1260 1572
1260 1576
1260 1582
1260 1587
1261 1276
1261 1282
1261 1293
1261 1294
1261 1295
1261 1304
1261 1305
1261 1319
1261 1322
1261 1331
1261 1383
1261 1396
1261 1425
1261 1433
1261 1445
1261 1450
1261 1456
1261 1469
1261 1470
1261 1480
1261 1494
1261 1502
1261 1504
1261 1510
1261 1534
1261 1535
1261 1539
1261 1543
1261 1548
1261 1551
1261 1564
1261 1576
1261 1577
1261 1588
1262 1266
1262 1273
1262 1293
1262 1298
1262 1322
1262 1330
1262 1335
1262 1341
1262 1387
1262 1400
1262 1403
1262 1415
1262 1427
1262 1450
1262 1451
1262 1461
1262 1477
1262 1501
1262 1505
1262 1517
1262 1530
1262 1566
1262 1596
1262 1598
1262 1599
1263 1271
1263 1290
1263 1307
1263 1309
1263 1312
1263 1324
1263 1325
1263 1334
1263 1345
1263 1358
1263 1359
1263 1362
1263 1368
1263 1380
1263 1387
1263 1447
1263 1462
1263 1465
1263 1472
1263 1491
1263 1496
1263 1512
1263 1516
1263 1553
1263 1561
1263 1566
1263 1574
1263 1591
1263 1593
1263 1596
1264 1270
1264 1276
1264 1279
1264 1293
1264 1295
1264 1298
1264 1302
1264 1339
1264 1348
1264 1350
1264 1353
1264 1355
1264 1356
1264 1360
1264 1396
1264 1404
1264 1411
1264 1432
1264 1439
1264 1450
1264 1461
1264 1465
1264 1467
1264 1469
1264 1470
1264 1472
1264 1479
1264 1485
1264 1532
1264 1535
1264 1538
1264 1545
1264 1546
1264 1547
1264 1554
1264 1565
1264 1594
1265 1269
1265 1296
1265 1300
1265 1303
1265 1313
1265 1327
1265 1343
1265 1361
1265 1365
1265 1375
1265 1382
1265 1390
1265 1436
1265 1441
1265 1472
1265 1477
1265 1493
1265 1516
1265 1532
1265 1565
1265 1566
1265 1568
1265 1570
1265 1596
1266 1278
1266 1283
1266 1287
1266 1324
1266 1333
1266 1338
1266 1343
1266 1357
1266 1360
1266 1364
1266 1366
1266 1379
1266 1380
1266 1381
1266 1406
1266 1424
1266 1426
1266 1427
1266 1439
1266 1444
1266 1464
1266 1467
1266 1471
1266 1479
1266 1489
1266 1523
1266 1534
1266 1537
1266 1541
1266 1544
1266 1545
1266 1552
1266 1555
1266 1596
1267 1280
1267 1288
1267 1354
1267 1360
1267 1362
1267 1364
1267 1365
1267 1370
1267 1380
1267 1383
1267 1411
1267 1433
1267 1436
1267 1437
1267 1442
1267 1459
1267 1471
1267 1484
1267 1492
1267 1525
1267 1530
1267 1531
1267 1533
1267 1534
1267 1535
1267 1539
1267 1540
1267 1552
1267 1562
1267 1578
1267 1588
1268 1273
1268 1278
1268 1284
1268 1329
1268 1343
1268 1349
1268 1350
1268 1355
1268 1363
1268 1365
1268 1366
1268 1378
1268 1392
1268 1394
1268 1412
1268 1413
1268 1418
1268 1423
1268 1424
1268 1425
1268 1427
1268 1436
1268 1457
1268 1471
1268 1475
1268 1484
1268 1509
1268 1522
1268 1527
1268 1567
1268 1572
1268 1573
1268 1580
1268 1590
1268 1596
1268 1597
1269 1297
1269 1301
1269 1304
1269 1329
1269 1330
1269 1345
1269 1346
1269 1359
1269 1362
1269 1377
1269 1384
1269 1389
1269 1391
1269 1394
1269 1405
1269 1414
1269 1417
1269 1421
1269 1424
1269 1434
1269 1450
1269 1452
1269 1464
1269 1499
1269 1507
1269 1515
1269 1533
1269 1543
1269 1559
1269 1562
1269 1570
1270 1281
1270 1291
1270 1302
1270 1313
1270 1318
1270 1330
1270 1349
1270 1351
1270 1352
1270 1354
1270 1361
1270 1366
1270 1392
1270 1395
1270 1402
1270 1413
1270 1415
1270 1422
1270 1424
1270 1426
1270 1428
1270 1445
1270 1447
1270 1463
1270 1464
1270 1478
1270 1493
1270 1505
1270 1519
1270 1534
1270 1545
1270 1562
1270 1564
1270 1572
1270 1575
1270 1580
1270 1581
1270 1594
1270 1597
1271 1275
1271 1290
1271 1311
1271 1312
1271 1321
1271 1335
1271 1344
1271 1363
1271 1368
1271 1403
1271 1405
1271 1408
1271 1412
1271 1415
1271 1419
1271 1446
1271 1448
1271 1453
1271 1457
1271 1490
1271 1492
1271 1495
1271 1501
1271 1512
1271 1513
1271 1529
1271 1533
1271 1534
1271 1577
1271 1580
1271 1582
1271 1590
1271 1592
1271 1595
1272 1296
1272 1311
1272 1318
1272 1330
1272 1334
1272 1342
1272 1348
1272 1350
1272 1377
1272 1387
1272 1390
1272 1403
1272 1406
1272 1410
1272 1424
1272 1435
1272 1438
1272 1439
1272 1452
1272 1454
1272 1457
1272 1490
1272 1504
1272 1506
1272 1508
1272 1522
1272 1525
1272 1539
1272 1545
1272 1557
1272 1562
1272 1563
1272 1565
1272 1590
1272 1592
1273 1274
1273 1278
1273 1286
1273 1288
1273 1297
1273 1309
1273 1312
1273 1315
1273 1317
1273 1326
1273 1331
1273 1348
1273 1351
1273 1376
1273 1383
1273 1387
1273 1396
1273 1413
1273 1415
1273 1428
1273 1431
1273 1437
1273 1447
1273 1454
1273 1470
1273 1475
1273 1482
1273 1510
1273 1517
1273 1525
1273 1527
1273 1532
1273 1535
1273 1544
1273 1548
1273 1555
1273 1561
1273 1565
1273 1568
1273 1592
1273 1593
1273 1594
1273 1595
1273 1599
1274 1281
1274 1296
1274 1301
1274 1303
1274 1305
1274 1310
1274 1320
1274 1330
1274 1366
1274 1374
1274 1382
1274 1385
1274 1387
1274 1388
1274 1407
1274 1419
1274 1433
1274 1438
1274 1444
1274 1445
1274 1447
1274 1453
1274 1458
1274 1473
1274 1488
1274 1495
1274 1521
1274 1540
1274 1548
1274 1558
1274 1559
1274 1588
1274 1594
1275 1278
1275 1279
1275 1283
1275 1284
1275 1313
1275 1326
1275 1330
1275 1335
1275 1336
1275 1358
1275 1372
1275 1376
1275 1382
1275 1396
1275 1401
1275 1420
1275 1421
1275 1429
1275 1445
1275 1462
1275 1464
1275 1480
1275 1518
1275 1522
1275 1531
1275 1545
1275 1550
1275 1570
1275 1571
1275 1582
1275 1584
1276 1282
1276 1300
1276 1301
1276 1315
1276 1325
1276 1326
1276 1337
1276 1346
1276 1359
1276 1367
1276 1373
1276 1386
1276 1393
1276 1395
1276 1425
1276 1427
1276 1442
1276 1452
1276 1467
1276 1475
1276 1479
1276 1484
1276 1526
1276 1539
1276 1548
1276 1561
1276 1569
1276 1586
1276 1593
1276 1598
1276 1701
1277 1301
1277 1322
1277 1323
1277 1327
1277 1335
1277 1339
1277 1344
1277 1348
1277 1350
1277 1352
1277 1363
1277 1384
1277 1385
1277 1395
1277 1402
1277 1407
1277 1414
1277 1425
1277 1439
1277 1457
1277 1461
1277 1492
1277 1500
1277 1506
1277 1507
1277 1510
1277 1517
1277 1531
1277 1533
1277 1567
1277 1595
1278 1279
1278 1280
1278 1298
1278 1302
1278 1310
1278 1313
1278 1321
1278 1339
1278 1369
1278 1385
1278 1388
1278 1393
1278 1402
1278 1409
1278 1431
1278 1447
1278 1453
1278 1459
1278 1464
1278 1468
1278 1514
1278 1518
1278 1532
1278 1549
1278 1571
1279 1282
1279 1283
1279 1291
1279 1318
1279 1325
1279 1329
1279 1331
1279 1332
1279 1336
1279 1338
1279 1347
1279 1348
1279 1353
1279 1367
1279 1390
1279 1401
1279 1402
1279 1404
1279 1407
1279 1430
1279 1436
1279 1481
1279 1493
1279 1497
1279 1500
1279 1509
1279 1514
1279 1531
1279 1533
1279 1550
1279 1556
1279 1570
1279 1574
1279 1577
1279 1584
1279 1585
1279 1595
1279 1599
1280 1286
1280 1309
1280 1316
1280 1321
1280 1324
1280 1342
1280 1368
1280 1373
1280 1380
1280 1391
1280 1394
1280 1404
1280 1406
1280 1411
1280 1412
1280 1416
1280 1418
1280 1429
1280 1432
1280 1433
1280 1436
1280 1444
1280 1500
1280 1535
1280 1536
1280 1540
1280 1542
1280 1546
1280 1549
1280 1552
1280 1557
1280 1579
1281 1288
1281 1292
1281 1302
1281 1305
1281 1352
1281 1355
1281 1369
1281 1400
1281 1428
1281 1450
1281 1451
1281 1463
1281 1465
1281 1468
1281 1473
1281 1493
1281 1507
1281 1515
1281 1533
1281 1535
1281 1541
1281 1547
1281 1562
1281 1563
1282 1294
1282 1296
1282 1302
1282 1312
1282 1322
1282 1326
1282 1345
1282 1357
1282 1377
1282 1378
1282 1382
1282 1385
1282 1388
1282 1391
1282 1399
1282 1402
1282 1412
1282 1419
1282 1421
1282 1423
1282 1425
1282 1442
1282 1448
1282 1458
1282 1478
1282 1482
1282 1490
1282 1557
1282 1563
1282 1587
1283 1303
1283 1353
1283 1363
1283 1365
1283 1373
1283 1385
1283 1410
1283 1416
1283 1417
1283 1430
1283 1435
1283 1440
1283 1445
1283 1447
1283 1448
1283 1483
1283 1486
1283 1501
1283 1519
1283 1553
1283 1557
1283 1559
1283 1561
1283 1567
1283 1572
1283 1582
1284 1285
1284 1292
1284 1313
1284 1321
1284 1327
1284 1328
1284 1338
1284 1341
1284 1362
1284 1394
1284 1411
1284 1417
1284 1466
1284 1479
1284 1505
1284 1517
1284 1527
1284 1531
1284 1544
1284 1561
1284 1572
1285 1297
1285 1309
1285 1331
1285 1335
1285 1338
1285 1352
1285 1359
1285 1375
1285 1381
1285 1383
1285 1454
1285 1457
1285 1466
1285 1485
1285 1487
1285 1488
1285 1494
1285 1496
1285 1503
1285 1509
1285 1545
1285 1546
1285 1552
1285 1553
1285 1565
1285 1569
1285 1571
1285 1593
1286 1319
1286 1323
1286 1325
1286 1330
1286 1334
1286 1338
1286 1351
1286 1361
1286 1370
1286 1381
1286 1385
1286 1392
1286 1393
1286 1421
1286 1431
1286 1432
1286 1433
1286 1435
1286 1460
1286 1462
1286 1468
1286 1470
1286 1500
1286 1512
1286 1514
1286 1524
1286 1550
1286 1561
1286 1593
1286 1597
1287 1292
1287 1311
1287 1334
1287 1360
1287 1367
1287 1371
1287 1373
1287 1385
1287 1395
1287 1404
1287 1406
1287 1415
1287 1430
1287 1434
1287 1458
1287 1468
1287 1474
1287 1478
1287 1489
1287 1503
1287 1505
1287 1506
1287 1511
1287 1524
1287 1572
1287 1573
1287 1581
1287 1587
1287 1588
1287 1594
1287 1598
1287 1733
1288 1291
1288 1302
1288 1306
1288 1319
1288 1326
1288 1327
1288 1328
1288 1365
1288 1374
1288 1383
1288 1414
1288 1435
1288 1436
1288 1439
1288 1453
1288 1454
1288 1455
1288 1457
1288 1462
1288 1478
1288 1479
1288 1518
1288 1527
1288 1528
1288 1534
1288 1536
1288 1539
1288 1557
1288 1558
1288 1562
1288 1564
1288 1575
1288 1587
1289 1301
1289 1328
1289 1343
1289 1346
1289 1374
1289 1385
1289 1388
1289 1434
1289 1451
1289 1484
1289 1508
1289 1528
1289 1549
1289 1557
1289 1559
1289 1561
1289 1564
1289 1574
1290 1296
1290 1300
1290 1305
1290 1313
1290 1331
1290 1335
1290 1340
1290 1359
1290 1363
1290 1365
1290 1369
1290 1373
1290 1375
1290 1378
1290 1396
1290 1398
1290 1402
1290 1407
1290 1447
1290 1465
1290 1466
1290 1480
1290 1494
1290 1510
1290 1521
1290 1529
1290 1532
1290 1563
1290 1566
1290 1572
1290 1576
1290 1589
1291 1299
1291 1304
1291 1308
1291 1325
1291 1329
1291 1339
1291 1390
1291 1399
1291 1428
1291 1436
1291 1466
1291 1475
1291 1491
1291 1501
1291 1513
1291 1518
1291 1532
1291 1534
1291 1544
1291 1551
1291 1554
1291 1557
1291 1587
1292 1300
1292 1308
1292 1311
1292 1313
1292 1321
1292 1324
1292 1342
1292 1363
1292 1371
1292 1381
1292 1387
1292 1388
1292 1389
1292 1393
1292 1394
1292 1398
1292 1404
1292 1410
1292 1416
1292 1423
1292 1430
1292 1439
1292 1440
1292 1455
1292 1469
1292 1483
1292 1492
1292 1509
1292 1510
1292 1523
1292 1541
1292 1553
1292 1554
1292 1557
1292 1562
1292 1578
1292 1581
1292 1582
1292 1597
1293 1296
1293 1302
1293 1315
1293 1350
1293 1368
1293 1393
1293 1408
1293 1412
1293 1428
1293 1436
1293 1446
1293 1448
1293 1453
1293 1458
1293 1474
1293 1486
1293 1489
1293 1494
1293 1504
1293 1525
1293 1528
1293 1543
1293 1544
1293 1548
1293 1557
1293 1561
1293 1563
1293 1570
1293 1575
1293 1576
1293 1587
1293 1597
1294 1300
1294 1306
1294 1311
1294 1330
1294 1332
1294 1337
1294 1344
1294 1346
1294 1355
1294 1362
1294 1365
1294 1375
1294 1384
1294 1392
1294 1394
1294 1415
1294 1426
1294 1470
1294 1476
1294 1477
1294 1502
1294 1504
1294 1514
1294 1516
1294 1530
1294 1533
1294 1552
1294 1559
1294 1567
1294 1570
1294 1573
1294 1584
1294 1587
1294 1598
1295 1300
1295 1304
1295 1315
1295 1335
1295 1346
1295 1354
1295 1358
1295 1359
1295 1375
1295 1379
1295 1389
1295 1396
1295 1406
1295 1407
1295 1410
1295 1422
1295 1423
1295 1429
1295 1484
1295 1492
1295 1498
1295 1512
1295 1513
1295 1519
1295 1526
1295 1528
1295 1529
1295 1539
1295 1542
1295 1548
1295 1557
1295 1559
1295 1572
1295 1582
1295 1587
1295 1591
1296 1305
1296 1309
1296 1334
1296 1340
1296 1364
1296 1375
1296 1391
1296 1393
1296 1396
1296 1409
1296 1410
1296 1421
1296 1424
1296 1432
1296 1444
1296 1448
1296 1453
1296 1478
1296 1484
1296 1486
1296 1501
1296 1508
1296 1513
1296 1523
1296 1528
1296 1531
1296 1533
1296 1548
1296 1556
1296 1557
1296 1578
1296 1596
1297 1305
1297 1325
1297 1328
1297 1355
1297 1360
1297 1389
1297 1393
1297 1401
1297 1440
1297 1442
1297 1462
1297 1470
1297 1482
1297 1492
1297 1496
1297 1525
1297 1537
1297 1546
1297 1547
1297 1577
1297 1588
1298 1306
1298 1334
1298 1338
1298 1340
1298 1356
1298 1379
1298 1388
1298 1390
1298 1403
1298 1413
1298 1420
1298 1438
1298 1439
1298 1443
1298 1456
1298 1458
1298 1459
1298 1470
1298 1474
1298 1475
1298 1478
1298 1481
1298 1489
1298 1504
1298 1514
1298 1521
1298 1553
1298 1554
1298 1562
1298 1574
1298 1576
1298 1597
1299 1320
1299 1326
1299 1334
1299 1349
1299 1366
1299 1369
1299 1380
1299 1387
1299 1396
1299 1401
1299 1405
1299 1408
1299 1410
1299 1438
1299 1442
1299 1463
1299 1474
1299 1476
1299 1479
1299 1480
1299 1492
1299 1498
1299 1507
1299 1512
1299 1514
1299 1517
1299 1525
1299 1540
1299 1544
1299 1545
1299 1550
1299 1551
1299 1573
1299 1575
1299 1579
1299 1581
1299 1585
1299 1587
1300 1308
1300 1311
1300 1346
1300 1349
1300 1354
1300 1356
1300 1385
1300 1396
1300 1400
1300 1411
1300 1415
1300 1416
1300 1421
1300 1435
1300 1439
1300 1442
1300 1447
1300 1468
1300 1486
1300 1489
1300 1532
1300 1533
1300 1535
1300 1537
1300 1547
1300 1548
1300 1563
1300 1570
1300 1590
1300 1592
1301 1318
1301 1321
1301 1323
1301 1332
1301 1334
1301 1337
1301 1362
1301 1364
1301 1365
1301 1385
1301 1410
1301 1438
1301 1468
1301 1488
1301 1504
1301 1509
1301 1519
1301 1527
1301 1534
1301 1546
1301 1549
1301 1556
1301 1565
1301 1581
1301 1582
1301 1585
1302 1305
1302 1324
1302 1328
1302 1330
1302 1337
1302 1339
1302 1359
1302 1360
1302 1372
1302 1376
1302 1381
1302 1384
1302 1390
1302 1401
1302 1418
1302 1425
1302 1430
1302 1434
1302 1456
1302 1462
1302 1481
1302 1484
1302 1495
1302 1496
1302 1497
1302 1514
1302 1516
1302 1527
1302 1552
1302 1556
1302 1578
1302 1589
1302 1598
1303 1341
1303 1342
1303 1401
1303 1406
1303 1416
1303 1436
1303 1438
1303 1449
1303 1466
1303 1495
1303 1510
1303 1551
1303 1552
1303 1554
1303 1568
1303 1578
1303 1586
1304 1312
1304 1313
1304 1316
1304 1328
1304 1329
1304 1333
1304 1336
1304 1341
1304 1342
1304 1359
1304 1360
1304 1374
1304 1426
1304 1428
1304 1439
1304 1456
1304 1484
1304 1499
1304 1506
1304 1516
1304 1528
1304 1544
1304 1558
1304 1578
1305 1318
1305 1322
1305 1335
1305 1377
1305 1397
1305 1399
1305 1400
1305 1403
1305 1437
1305 1450
1305 1456
1305 1462
1305 1473
1305 1474
1305 1476
1305 1492
1305 1510
1305 1548
1305 1556
1305 1560
1305 1561
1305 1580
1305 1589
1305 1911
1306 1318
1306 1325
1306 1337
1306 1344
1306 1371
1306 1373
1306 1417
1306 1431
1306 1442
1306 1448
1306 1456
1306 1470
1306 1480
1306 1486
1306 1493
1306 1497
1306 1515
1306 1519
1306 1537
1306 1539
1306 1541
1306 1542
1306 1550
1306 1559
1306 1561
1306 1597
1307 1315
1307 1317
1307 1327
1307 1346
1307 1350
1307 1357
1307 1373
1307 1375
1307 1389
1307 1398
1307 1428
1307 1430
1307 1436
1307 1444
1307 1445
1307 1463
1307 1466
1307 1468
1307 1496
1307 1501
1307 1518
1307 1520
1307 1534
1307 1539
1307 1540
1307 1567
1307 1575
1307 1582
1307 1589
1308 1315
1308 1318
1308 1321
1308 1324
1308 1345
1308 1350
1308 1353
1308 1365
1308 1372
1308 1377
1308 1378
1308 1381
1308 1389
1308 1400
1308 1408
1308 1410
1308 1421
1308 1422
1308 1423
1308 1429
1308 1441
1308 1447
1308 1456
1308 1462
1308 1467
1308 1479
1308 1495
1308 1519
1308 1526
1308 1533
1308 1540
1308 1559
1308 1586
1309 1324
1309 1333
1309 1340
1309 1341
1309 1352
1309 1357
1309 1374
1309 1375
1309 1377
1309 1385
1309 1389
1309 1446
1309 1479
1309 1502
1309 1507
1309 1519
1309 1524
1309 1538
1309 1554
1309 1566
1309 1569
1309 1580
1310 1314
1310 1324
1310 1333
1310 1352
1310 1356
1310 1380
1310 1381
1310 1382
1310 1383
1310 1401
1310 1402
1310 1405
1310 1416
1310 1422
1310 1445
1310 1459
1310 1460
1310 1463
1310 1465
1310 1467
1310 1470
1310 1473
1310 1500
1310 1501
1310 1508
1310 1509
1310 1513
1310 1518
1310 1527
1310 1529
1310 1536
1310 1538
1310 1556
1310 1575
1310 1588
1310 1591
1310 1592
1310 1593
1311 1312
1311 1314
1311 1319
1311 1321
1311 1330
1311 1333
1311 1338
1311 1347
1311 1349
1311 1361
1311 1363
1311 1365
1311 1378
1311 1385
1311 1390
1311 1391
1311 1394
1311 1403
1311 1420
1311 1425
1311 1435
1311 1490
1311 1497
1311 1509
1311 1512
1311 1529
1311 1531
1311 1534
1311 1559
1311 1574
1311 1585
1311 1587
1312 1318
1312 1321
1312 1347
1312 1372
1312 1376
1312 1385
1312 1409
1312 1414
1312 1420
1312 1431
1312 1434
1312 1436
1312 1469
1312 1473
1312 1487
1312 1488
1312 1510
1312 1517
1312 1518
1312 1519
1312 1521
1312 1522
1312 1533
1312 1536
1312 1553
1312 1556
1312 1557
1312 1564
1312 1587
1312 1592
1312 1598
1313 1330
1313 1334
1313 1337
1313 1350
1313 1355
1313 1363
1313 1370
1313 1375
1313 1385
1313 1389
1313 1391
1313 1399
1313 1422
1313 1429
1313 1434
1313 1437
1313 1442
1313 1445
1313 1452
1313 1455
1313 1456
1313 1468
1313 1482
1313 1493
1313 1496
1313 1505
1313 1530
1313 1561
1313 1583
1313 1589
1313 1595
1314 1340
1314 1342
1314 1374
1314 1378
1314 1390
1314 1391
1314 1393
1314 1412
1314 1413
1314 1422
1314 1432
1314 1439
1314 1446
1314 1473
1314 1495
1314 1498
1314 1499
1314 1503
1314 1507
1314 1508
1314 1529
1314 1534
1314 1545
1314 1550
1314 1551
1314 1560
1314 1564
1314 1571
1314 1572
1314 1575
1314 1581
1314 1585
1314 1588
1314 1592
1315 1327
1315 1332
1315 1342
1315 1360
1315 1391
1315 1396
1315 1398
1315 1404
1315 1407
1315 1412
1315 1415
1315 1418
1315 1423
1315 1425
1315 1451
1315 1468
1315 1479
1315 1483
1315 1487
1315 1492
1315 1499
1315 1508
1315 1525
1315 1533
1315 1536
1315 1537
1315 1544
1315 1545
1315 1547
1315 1554
1315 1560
1315 1561
1315 1564
1315 1575
1315 1582
1315 1585
1315 1595
1315 1599
1316 1322
1316 1325
1316 1330
1316 1335
1316 1337
1316 1341
1316 1350
1316 1357
1316 1367
1316 1383
1316 1397
1316 1402
1316 1417
1316 1423
1316 1440
1316 1451
1316 1453
1316 1461
1316 1476
1316 1512
1316 1519
1316 1535
1316 1547
1316 1550
1316 1551
1316 1552
1316 1568
1316 1573
1316 1588
1316 1599
1317 1335
1317 1355
1317 1367
1317 1370
1317 1374
1317 1388
1317 1392
1317 1393
1317 1407
1317 1414
1317 1416
1317 1424
1317 1429
1317 1433
1317 1447
1317 1465
1317 1479
1317 1487
1317 1502
1317 1503
1317 1510
1317 1517
1317 1524
1317 1532
1317 1534
1317 1543
1317 1575
1317 1578
1317 1594
1317 1614
1318 1328
1318 1351
1318 1352
1318 1354
1318 1376
1318 1383
1318 1402
1318 1404
1318 1413
1318 1423
1318 1425
1318 1426
1318 1433
1318 1434
1318 1447
1318 1456
1318 1471
1318 1472
1318 1482
1318 1505
1318 1506
1318 1513
1318 1560
1318 1564
1318 1577
1318 1584
1319 1332
1319 1354
1319 1381
1319 1384
1319 1395
1319 1396
1319 1432
1319 1441
1319 1456
1319 1465
1319 1467
1319 1473
1319 1485
1319 1488
1319 1493
1319 1496
1319 1507
1319 1517
1319 1546
1319 1551
1319 1572
1319 1580
1320 1329
1320 1340
1320 1363
1320 1382
1320 1396
1320 1422
1320 1423
1320 1432
1320 1435
1320 1442
1320 1453
1320 1463
1320 1466
1320 1473
1320 1476
1320 1483
1320 1487
1320 1488
1320 1503
1320 1510
1320 1515
1320 1520
1320 1523
1320 1563
1320 1568
1320 1573
1320 1588
1320 1593
1320 1597
1320 1599
1321 1336
1321 1343
1321 1345
1321 1379
1321 1399
1321 1413
1321 1425
1321 1426
1321 1437
1321 1453
1321 1480
1321 1483
1321 1489
1321 1490
1321 1496
1321 1507
1321 1516
1321 1520
1321 1521
1321 1522
1321 1523
1321 1536
1321 1556
1321 1562
1321 1565
1321 1575
1321 1596
1321 1597
1322 1370
1322 1383
1322 1386
1322 1387
1322 1398
1322 1401
1322 1406
1322 1407
1322 1437
1322 1447
1322 1448
1322 1458
1322 1463
1322 1489
1322 1495
1322 1499
1322 1516
1322 1533
1322 1546
1322 1549
1322 1550
1322 1563
1322 1588
1322 1598
1323 1329
1323 1331
1323 1338
1323 1346
1323 1358
1323 1363
1323 1377
1323 1379
1323 1381
1323 1386
1323 1419
1323 1420
1323 1436
1323 1438
1323 1444
1323 1458
1323 1465
1323 1472
1323 1491
1323 1500
1323 1504
1323 1505
1323 1507
1323 1509
1323 1514
1323 1516
1323 1517
1323 1523
1323 1526
1323 1535
1323 1536
1323 1542
1323 1578
1323 1584
1324 1327
1324 1359
1324 1365
1324 1367
1324 1368
1324 1385
1324 1401
1324 1407
1324 1411
1324 1416
1324 1430
1324 1436
1324 1439
1324 1451
1324 1453
1324 1465
1324 1467
1324 1470
1324 1471
1324 1481
1324 1483
1324 1489
1324 1497
1324 1498
1324 1514
1324 1546
1324 1556
1324 1579
1324 1583
1325 1330
1325 1355
1325 1363
1325 1372
1325 1376
1325 1377
1325 1382
1325 1384
1325 1391
1325 1410
1325 1425
1325 1426
1325 1427
1325 1438
1325 1441
1325 1444
1325 1471
1325 1479
1325 1491
1325 1494
1325 1501
1325 1511
1325 1542
1325 1548
1325 1551
1325 1553
1325 1556
1325 1563
1325 1565
1325 1567
1325 1570
1325 1574
1325 1578
1325 1580
1325 1581
1325 1584
1325 1585
1325 1599
1326 1335
1326 1347
1326 1359
1326 1371
1326 1376
1326 1389
1326 1393
1326 1403
1326 1411
1326 1415
1326 1420
1326 1429
1326 1447
1326 1467
1326 1497
1326 1499
1326 1501
1326 1508
1326 1517
1326 1537
1326 1542
1326 1544
1326 1556
1326 1560
1326 1567
1326 1571
1326 1578
1327 1350
1327 1360
1327 1362
1327 1373
1327 1375
1327 1376
1327 1388
1327 1401
1327 1404
1327 1421
1327 1426
1327 1428
1327 1433
1327 1441
1327 1466
1327 1473
1327 1484
1327 1488
1327 1491
1327 1499
1327 1511
1327 1520
1327 1521
1327 1537
1327 1539
1327 1549
1327 1558
1327 1560
1327 1564
1327 1567
1327 1574
1327 1587
1327 1591
1327 1592
1328 1345
1328 1357
1328 1363
1328 1390
1328 1393
1328 1434
1328 1446
1328 1459
1328 1464
1328 1490
1328 1491
1328 1493
1328 1502
1328 1543
1328 1555
1328 1566
1328 1571
1328 1580
1328 1595
1328 1597
1328 1778
1329 1333
1329 1374
1329 1380
1329 1384
1329 1405
1329 1412
1329 1416
1329 1421
1329 1426
1329 1429
1329 1430
1329 1452
1329 1455
1329 1474
1329 1490
1329 1507
1329 1520
1329 1522
1329 1535
1329 1537
1329 1550
1329 1554
1329 1556
1329 1570
1329 1577
1329 1583
1329 1596
1330 1347
1330 1357
1330 1361
1330 1393
1330 1397
1330 1398
1330 1412
1330 1415
1330 1427
1330 1440
1330 1443
1330 1467
1330 1482
1330 1514
1330 1528
1330 1532
1330 1546
1330 1549
1330 1551
1330 1552
1330 1553
1330 1563
1330 1565
1330 1568
1330 1575
1330 1581
1330 1587
1331 1340
1331 1369
1331 1395
1331 1396
1331 1415
1331 1424
1331 1438
1331 1461
1331 1466
1331 1467
1331 1478
1331 1491
1331 1500
1331 1517
1331 1531
1331 1560
1331 1562
1331 1583
1331 1590
1331 1593
1331 1596
1332 1336
1332 1343
1332 1345
1332 1350
1332 1352
1332 1371
1332 1386
1332 1393
1332 1394
1332 1396
1332 1409
1332 1412
1332 1415
1332 1418
1332 1425
1332 1443
1332 1453
1332 1467
1332 1478
1332 1488
1332 1513
1332 1535
1332 1536
1332 1541
1332 1557
1332 1560
1332 1561
1332 1584
1332 1585
1332 1598
1333 1347
1333 1361
1333 1374
1333 1378
1333 1383
1333 1384
1333 1389
1333 1390
1333 1391
1333 1396
1333 1407
1333 1419
1333 1424
1333 1426
1333 1436
1333 1441
1333 1457
1333 1471
1333 1486
1333 1500
1333 1537
1333 1567
1333 1572
1333 1574
1333 1583
1333 1586
1333 1587
1334 1335
1334 1342
1334 1343
1334 1346
1334 1350
1334 1354
1334 1405
1334 1411
1334 1415
1334 1428
1334 1431
1334 1432
1334 1440
1334 1464
1334 1465
1334 1476
1334 1477
1334 1488
1334 1491
1334 1496
1334 1510
1334 1516
1334 1528
1334 1541
1334 1550
1334 1556
1334 1561
1334 1563
1335 1359
1335 1361
1335 1404
1335 1414
1335 1415
1335 1433
1335 1437
1335 1455
1335 1469
1335 1474
1335 1483
1335 1487
1335 1494
1335 1496
1335 1498
1335 1512
1335 1557
1335 1564
1335 1579
1335 1581
1335 1582
1335 1585
1335 1587
1335 1594
1336 1337
1336 1341
1336 1344
1336 1347
1336 1348
1336 1356
1336 1364
1336 1372
1336 1378
1336 1389
1336 1399
1336 1420
1336 1421
1336 1427
1336 1428
1336 1431
1336 1433
1336 1445
1336 1450
1336 1456
1336 1476
1336 1481
1336 1486
1336 1490
1336 1524
1336 1529
1336 1543
1336 1544
1336 1545
1336 1556
1336 1558
1336 1560
1336 1573
1336 1581
1336 1589
1336 1594
1336 1595
1337 1339
1337 1348
1337 1353
1337 1374
1337 1380
1337 1394
1337 1400
1337 1427
1337 1433
1337 1442
1337 1443
1337 1455
1337 1458
1337 1472
1337 1481
1337 1484
1337 1492
1337 1496
1337 1500
1337 1501
1337 1503
1337 1505
1337 1508
1337 1513
1337 1514
1337 1552
1337 1553
1337 1558
1337 1568
1337 1571
1337 1577
1337 1580
1337 1597
1338 1353
1338 1366
1338 1384
1338 1388
1338 1422
1338 1458
1338 1467
1338 1473
1338 1483
1338 1489
1338 1491
1338 1496
1338 1507
1338 1521
1338 1533
1338 1543
1338 1589
1338 1590
1338 1593
1339 1343
1339 1356
1339 1357
1339 1370
1339 1373
1339 1375
1339 1380
1339 1383
1339 1394
1339 1399
1339 1401
1339 1409
1339 1411
1339 1442
1339 1454
1339 1469
1339 1475
1339 1478
1339 1493
1339 1498
1339 1503
1339 1507
1339 1513
1339 1530
1339 1531
1339 1536
1339 1551
1339 1578
1340 1359
1340 1366
1340 1391
1340 1392
1340 1400
1340 1427
1340 1433
1340 1448
1340 1456
1340 1496
1340 1503
1340 1539
1340 1549
1340 1563
1340 1566
1340 1573
1340 1590
1340 1597
1341 1342
1341 1352
1341 1362
1341 1369
1341 1373
1341 1375
1341 1376
1341 1380
1341 1381
1341 1385
1341 1396
1341 1405
1341 1432
1341 1441
1341 1476
1341 1484
1341 1486
1341 1492
1341 1494
1341 1499
1341 1517
1341 1527
1341 1540
1341 1596
1342 1343
1342 1349
1342 1359
1342 1361
1342 1362
1342 1372
1342 1381
1342 1386
1342 1392
1342 1395
1342 1413
1342 1419
1342 1425
1342 1438
1342 1440
1342 1469
1342 1470
1342 1471
1342 1475
1342 1478
1342 1508
1342 1524
1342 1532
1342 1544
1342 1556
1342 1558
1342 1560
1342 1566
1342 1580
1342 1587
1342 1594
1342 1595
1342 1597
1343 1350
1343 1352
1343 1354
1343 1361
1343 1363
1343 1372
1343 1375
1343 1378
1343 1380
1343 1384
1343 1390
1343 1395
1343 1428
1343 1434
1343 1451
1343 1467
1343 1477
1343 1479
1343 1507
1343 1522
1343 1531
1343 1541
1343 1553
1343 1558
1343 1569
1343 1572
1343 1587
1344 1353
1344 1435
1344 1439
1344 1462
1344 1463
1344 1465
1344 1472
1344 1478
1344 1484
1344 1496
1344 1528
1344 1530
1344 1532
1344 1533
1344 1534
1344 1536
1344 1560
1344 1564
1344 1590
1344 1599
1345 1350
1345 1366
1345 1377
1345 1379
1345 1392
1345 1394
1345 1407
1345 1419
1345 1421
1345 1432
1345 1438
1345 1456
1345 1465
1345 1468
1345 1485
1345 1493
1345 1498
1345 1501
1345 1504
1345 1506
1345 1514
1345 1525
1345 1527
1345 1537
1345 1555
1345 1571
1345 1574
1345 1590
1346 1353
1346 1385
1346 1393
1346 1430
1346 1438
1346 1439
1346 1457
1346 1473
1346 1510
1346 1517
1346 1523
1346 1532
1346 1545
1346 1572
1346 1573
1346 1580
1346 1597
1347 1360
1347 1369
1347 1374
1347 1376
1347 1380
1347 1382
1347 1386
1347 1398
1347 1402
1347 1403
1347 1404
1347 1406
1347 1414
1347 1422
1347 1429
1347 1435
1347 1436
1347 1437
1347 1442
1347 1444
1347 1450
1347 1451
1347 1452
1347 1458
1347 1466
1347 1470
1347 1482
1347 1485
1347 1495
1347 1511
1347 1533
1347 1551
1347 1564
1347 1577
1347 1580
1347 1581
1347 1598
1348 1354
1348 1356
1348 1374
1348 1375
1348 1376
1348 1379
1348 1382
1348 1401
1348 1413
1348 1416
1348 1424
1348 1425
1348 1432
1348 1441
1348 1446
1348 1454
1348 1463
1348 1473
1348 1478
1348 1480
1348 1481
1348 1486
1348 1497
1348 1506
1348 1523
1348 1524
1348 1527
1348 1534
1348 1543
1348 1545
1348 1546
1348 1562
1348 1566
1348 1568
1348 1595
1348 1597
1349 1351
1349 1354
1349 1362
1349 1369
1349 1381
1349 1392
1349 1402
1349 1418
1349 1419
1349 1422
1349 1430
1349 1431
1349 1438
1349 1444
1349 1457
1349 1458
1349 1462
1349 1483
1349 1499
1349 1515
1349 1542
1349 1544
1349 1547
1349 1562
1349 1589
1349 1590
1350 1357
1350 1359
1350 1385
1350 1392
1350 1403
1350 1405
1350 1406
1350 1411
1350 1415
1350 1451
1350 1452
1350 1453
1350 1466
1350 1492
1350 1543
1350 1545
1350 1550
1350 1556
1350 1596
1350 1893
1351 1400
1351 1410
1351 1414
1351 1416
1351 1427
1351 1428
1351 1433
1351 1453
1351 1458
1351 1472
1351 1477
1351 1484
1351 1490
1351 1496
1351 1505
1351 1523
1351 1524
1351 1525
1351 1535
1351 1561
1351 1563
1351 1567
1351 1570
1351 1582
1351 1584
1352 1366
1352 1387
1352 1391
1352 1396
1352 1408
1352 1417
1352 1431
1352 1434
1352 1439
1352 1454
1352 1460
1352 1467
1352 1471
1352 1474
1352 1508
1352 1513
1352 1530
1352 1539
1352 1545
1352 1548
1352 1549
1352 1559
1352 1563
1352 1564
1352 1567
1352 1576
1352 1581
1352 1588
1353 1358
1353 1360
1353 1362
1353 1364
1353 1387
1353 1393
1353 1396
1353 1412
1353 1427
1353 1433
1353 1446
1353 1475
1353 1487
1353 1490
1353 1495
1353 1503
1353 1531
1353 1540
1353 1555
1353 1560
1353 1567
1353 1571
1353 1582
1353 1584
1353 1589
1353 1599
1354 1361
1354 1393
1354 1405
1354 1408
1354 1435
1354 1446
1354 1447
1354 1448
1354 1452
1354 1455
1354 1477
1354 1479
1354 1483
1354 1486
1354 1493
1354 1497
1354 1510
1354 1523
1354 1525
1354 1531
1354 1536
1354 1546
1354 1565
1354 1571
1354 1573
1354 1575
1354 1581
1354 1590
1354 1592
1355 1362
1355 1372
1355 1378
1355 1395
1355 1402
1355 1404
1355 1433
1355 1439
1355 1450
1355 1456
1355 1481
1355 1516
1355 1524
1355 1525
1355 1526
1355 1539
1355 1542
1355 1555
1355 1563
1355 1566
1355 1578
1355 1579
1355 1593
1356 1357
1356 1384
1356 1389
1356 1395
1356 1402
1356 1437
1356 1456
1356 1461
1356 1486
1356 1501
1356 1503
1356 1508
1356 1536
1356 1556
1356 1565
1356 1575
1356 1583
1356 1585
1357 1359
1357 1361
1357 1365
1357 1381
1357 1390
1357 1398
1357 1405
1357 1413
1357 1420
1357 1426
1357 1434
1357 1440
1357 1455
1357 1456
1357 1468
1357 1476
1357 1497
1357 1500
1357 1503
1357 1515
1357 1517
1357 1537
1357 1541
1357 1542
1357 1547
1357 1553
1357 1555
1357 1570
1357 1578
1357 1582
1357 1583
1357 1585
1357 1588
1357 1597
1358 1367
1358 1370
1358 1393
1358 1409
1358 1411
1358 1419
1358 1439
1358 1466
1358 1481
1358 1496
1358 1513
1358 1518
1358 1528
1358 1537
1358 1540
1358 1543
1358 1544
1358 1564
1358 1577
1358 1579
1358 1593
1359 1361
1359 1375
1359 1383
1359 1386
1359 1394
1359 1397
1359 1410
1359 1428
1359 1441
1359 1447
1359 1449
1359 1469
1359 1481
1359 1488
1359 1489
1359 1490
1359 1491
1359 1497
1359 1501
1359 1514
1359 1518
1359 1533
1359 1551
1359 1568
1359 1584
1359 1585
1359 1587
1359 1590
1359 1595
1359 1599
1360 1368
1360 1373
1360 1423
1360 1426
1360 1436
1360 1437
1360 1438
1360 1439
1360 1458
1360 1510
1360 1511
1360 1516
1360 1521
1360 1525
1360 1538
1360 1539
1360 1548
1360 1549
1360 1555
1360 1577
1360 1583
1360 1585
1360 1597
1361 1362
1361 1367
1361 1376
1361 1378
1361 1387
1361 1389
1361 1413
1361 1419
1361 1425
1361 1444
1361 1449
1361 1453
1361 1457
1361 1460
1361 1462
1361 1469
1361 1478
1361 1481
1361 1484
1361 1499
1361 1520
1361 1526
1361 1536
1361 1544
1361 1552
1361 1555
1361 1558
1361 1576
1362 1368
1362 1370
1362 1378
1362 1385
1362 1400
1362 1401
1362 1407
1362 1410
1362 1413
1362 1416
1362 1418
1362 1428
1362 1441
1362 1442
1362 1448
1362 1453
1362 1462
1362 1463
1362 1475
1362 1486
1362 1507
1362 1545
1362 1546
1362 1555
1362 1584
1362 1595
1363 1373
1363 1379
1363 1389
1363 1411
1363 1417
1363 1418
1363 1434
1363 1441
1363 1442
1363 1463
1363 1472
1363 1479
1363 1495
1363 1510
1363 1513
1363 1522
1363 1524
1363 1536
1363 1553
1363 1556
1363 1564
1363 1575
1363 1581
1364 1379
1364 1383
1364 1401
1364 1404
1364 1406
1364 1414
1364 1415
1364 1416
1364 1426
1364 1427
1364 1435
1364 1438
1364 1449
1364 1457
1364 1466
1364 1475
1364 1478
1364 1495
1364 1511
1364 1512
1364 1521
1364 1525
1364 1546
1364 1549
1364 1569
1364 1575
1365 1389
1365 1403
1365 1419
1365 1425
1365 1436
1365 1437
1365 1447
1365 1467
1365 1476
1365 1486
1365 1491
1365 1502
1365 1514
1365 1546
1365 1558
1365 1559
1365 1574
1365 1583
1365 1594
1366 1371
1366 1372
1366 1379
1366 1384
1366 1392
1366 1404
1366 1407
1366 1421
1366 1429
1366 1447
1366 1449
1366 1450
1366 1452
1366 1463
1366 1490
1366 1516
1366 1522
1366 1533
1366 1538
1366 1540
1366 1546
1366 1552
1366 1560
1366 1572
1366 1573
1366 1574
1366 1593
1366 1594
1367 1389
1367 1394
1367 1395
1367 1427
1367 1433
1367 1445
1367 1453
1367 1467
1367 1486
1367 1487
1367 1495
1367 1499
1367 1500
1367 1503
1367 1506
1367 1538
1367 1539
1367 1540
1367 1541
1367 1553
1367 1584
1367 1586
1367 1594
1368 1369
1368 1381
1368 1382
1368 1384
1368 1395
1368 1417
1368 1420
1368 1426
1368 1446
1368 1454
1368 1455
1368 1457
1368 1465
1368 1474
1368 1475
1368 1479
1368 1527
1368 1549
1368 1555
1368 1568
1368 1588
1368 1596
1369 1371
1369 1376
1369 1383
1369 1387
1369 1391
1369 1402
1369 1421
1369 1426
1369 1430
1369 1433
1369 1436
1369 1438
1369 1442
1369 1447
1369 1458
1369 1467
1369 1470
1369 1472
1369 1474
1369 1487
1369 1493
1369 1497
1369 1503
1369 1518
1369 1523
1369 1526
1369 1530
1369 1544
1369 1548
1369 1550
1369 1561
1369 1566
1370 1376
1370 1377
1370 1401
1370 1404
1370 1408
1370 1409
1370 1417
1370 1419
1370 1432
1370 1443
1370 1446
1370 1467
1370 1469
1370 1472
1370 1475
1370 1484
1370 1514
1370 1520
1370 1549
1370 1557
1370 1575
1370 1599
1371 1377
1371 1403
1371 1408
1371 1421
1371 1427
1371 1429
1371 1436
1371 1439
1371 1476
1371 1484
1371 1485
1371 1490
1371 1491
1371 1519
1371 1524
1371 1525
1371 1531
1371 1534
1371 1538
1371 1541
1371 1551
1371 1567
1371 1569
1371 1571
1371 1581
1371 1594
1371 1595
1372 1373
1372 1377
1372 1389
1372 1395
1372 1413
1372 1414
1372 1417
1372 1426
1372 1438
1372 1444
1372 1450
1372 1471
1372 1481
1372 1492
1372 1495
1372 1496
1372 1528
1372 1533
1372 1553
1372 1579
1372 1581
1372 1589
1372 1597
1373 1377
1373 1381
1373 1397
1373 1423
1373 1426
1373 1456
1373 1458
1373 1477
1373 1480
1373 1486
1373 1504
1373 1509
1373 1513
1373 1530
1373 1531
1373 1541
1373 1555
1373 1571
1373 1573
1373 1586
1373 1589
1373 1595
1374 1377
1374 1381
1374 1385
1374 1391
1374 1404
1374 1411
1374 1416
1374 1425
1374 1431
1374 1439
1374 1442
1374 1443
1374 1451
1374 1453
1374 1457
1374 1460
1374 1467
1374 1478
1374 1479
1374 1487
1374 1490
1374 1491
1374 1493
1374 1494
1374 1498
1374 1502
1374 1507
1374 1516
1374 1527
1374 1535
1374 1545
1374 1546
1374 1555
1374 1564
1374 1567
1374 1576
1374 1584
1374 1599
1375 1390
1375 1397
1375 1403
1375 1409
1375 1410
1375 1415
1375 1418
1375 1420
1375 1452
1375 1455
1375 1472
1375 1491
1375 1492
1375 1499
1375 1512
1375 1513
1375 1551
1375 1597
1376 1383
1376 1395
1376 1396
1376 1397
1376 1398
1376 1400
1376 1414
1376 1425
1376 1430
1376 1435
1376 1441
1376 1450
1376 1474
1376 1480
1376 1486
1376 1495
1376 1511
1376 1526
1376 1528
1376 1529
1376 1530
1376 1539
1376 1541
1376 1543
1376 1556
1376 1573
1376 1581
1376 1584
1376 1585
1376 1591
1377 1388
1377 1397
1377 1401
1377 1415
1377 1418
1377 1437
1377 1439
1377 1446
1377 1465
1377 1473
1377 1481
1377 1497
1377 1499
1377 1502
1377 1535
1377 1539
1377 1540
1377 1545
1377 1550
1377 1554
1377 1559
1377 1570
1377 1577
1377 1580
1378 1380
1378 1392
1378 1396
1378 1406
1378 1412
1378 1415
1378 1419
1378 1440
1378 1475
1378 1477
1378 1498
1378 1502
1378 1515
1378 1518
1378 1526
1378 1529
1378 1540
1378 1550
1378 1552
1378 1554
1378 1563
1378 1567
1378 1569
1378 1577
1378 1587
1378 1590
1379 1400
1379 1409
1379 1423
1379 1426
1379 1460
1379 1461
1379 1473
1379 1482
1379 1495
1379 1517
1379 1518
1379 1522
1379 1530
1379 1538
1379 1541
1379 1544
1379 1547
1379 1567
1379 1574
1379 1579
1379 1580
1379 1595
1380 1401
1380 1410
1380 1413
1380 1419
1380 1439
1380 1443
1380 1449
1380 1452
1380 1456
1380 1467
1380 1474
1380 1476
1380 1487
1380 1492
1380 1496
1380 1504
1380 1544
1380 1559
1380 1561
1380 1569
1380 1573
1380 1578
1380 1581
1380 1596
1380 1599
1381 1400
1381 1402
1381 1410
1381 1415
1381 1416
1381 1422
1381 1430
1381 1441
1381 1458
1381 1459
1381 1480
1381 1485
1381 1486
1381 1492
1381 1494
1381 1496
1381 1499
1381 1500
1381 1503
1381 1507
1381 1508
1381 1524
1381 1526
1381 1544
1381 1548
1381 1556
1381 1575
1381 1588
1381 1590
1382 1388
1382 1395
1382 1398
1382 1414
1382 1416
1382 1417
1382 1433
1382 1464
1382 1479
1382 1497
1382 1498
1382 1505
1382 1507
1382 1511
1382 1512
1382 1513
1382 1522
1382 1527
1382 1529
1382 1532
1382 1541
1382 1549
1382 1559
1382 1571
1382 1572
1382 1585
1382 1589
1382 1593
1383 1399
1383 1403
1383 1409
1383 1411
1383 1417
1383 1419
1383 1429
1383 1431
1383 1462
1383 1463
1383 1469
1383 1473
1383 1482
1383 1489
1383 1490
1383 1524
1383 1529
1383 1530
1383 1531
1383 1532
1383 1533
1383 1550
1383 1558
1383 1563
1383 1566
1383 1568
1383 1571
1384 1408
1384 1416
1384 1425
1384 1426
1384 1433
1384 1472
1384 1479
1384 1490
1384 1491
1384 1507
1384 1513
1384 1525
1384 1528
1384 1548
1384 1563
1384 1570
1384 1578
1384 1585
1384 1597
1385 1391
1385 1409
1385 1417
1385 1426
1385 1428
1385 1432
1385 1435
1385 1450
1385 1453
1385 1457
1385 1460
1385 1468
1385 1475
1385 1477
1385 1478
1385 1479
1385 1509
1385 1534
1385 1547
1385 1567
1385 1578
1385 1579
1385 1586
1385 1595
1385 1899
1386 1406
1386 1430
1386 1432
1386 1439
1386 1440
1386 1452
1386 1453
1386 1461
1386 1487
1386 1495
1386 1506
1386 1519
1386 1534
1386 1550
1386 1566
1386 1570
1386 1572
1386 1580
1387 1389
1387 1417
1387 1418
1387 1425
1387 1428
1387 1437
1387 1438
1387 1441
1387 1443
1387 1447
1387 1461
1387 1462
1387 1464
1387 1468
1387 1477
1387 1489
1387 1499
1387 1506
1387 1510
1387 1511
1387 1531
1387 1569
1387 1578
1388 1390
1388 1405
1388 1414
1388 1416
1388 1431
1388 1434
1388 1442
1388 1447
1388 1455
1388 1468
1388 1482
1388 1496
1388 1499
1388 1527
1388 1529
1388 1530
1388 1531
1388 1544
1388 1572
1388 1578
1388 1590
1389 1391
1389 1403
1389 1420
1389 1425
1389 1434
1389 1463
1389 1466
1389 1486
1389 1507
1389 1508
1389 1509
1389 1513
1389 1537
1389 1583
1389 1593
1390 1419
1390 1420
1390 1438
1390 1452
1390 1462
1390 1464
1390 1488
1390 1504
1390 1511
1390 1518
1390 1527
1390 1533
1390 1536
1390 1543
1390 1548
1390 1552
1390 1553
1390 1555
1390 1560
1390 1569
1390 1595
1391 1397
1391 1399
1391 1412
1391 1413
1391 1416
1391 1422
1391 1429
1391 1449
1391 1451
1391 1452
1391 1455
1391 1463
1391 1470
1391 1490
1391 1495
1391 1496
1391 1507
1391 1515
1391 1540
1391 1548
1391 1562
1391 1575
1391 1592
1392 1402
1392 1403
1392 1406
1392 1411
1392 1414
1392 1418
1392 1421
1392 1439
1392 1444
1392 1505
1392 1510
1392 1514
1392 1517
1392 1525
1392 1530
1392 1548
1392 1549
1392 1550
1392 1566
1392 1574
1392 1578
1392 1580
1392 1592
1393 1396
1393 1404
1393 1417
1393 1425
1393 1430
1393 1452
1393 1463
1393 1466
1393 1468
1393 1475
1393 1477
1393 1488
1393 1502
1393 1505
1393 1508
1393 1515
1393 1526
1393 1547
1393 1552
1393 1557
1393 1559
1393 1562
1393 1572
1393 1574
1393 1576
1393 1578
1393 1593
1393 1594
1394 1413
1394 1416
1394 1445
1394 1464
1394 1476
1394 1479
1394 1501
1394 1503
1394 1513
1394 1524
1394 1526
1394 1560
1394 1564
1394 1565
1394 1568
1394 1579
1394 1583
1394 1587
1394 1590
1395 1404
1395 1405
1395 1430
1395 1442
1395 1450
1395 1457
1395 1470
1395 1474
1395 1478
1395 1501
1395 1511
1395 1523
1395 1524
1395 1539
1395 1545
1395 1547
1395 1560
1395 1562
1395 1563
1395 1568
1395 1570
1395 1587
1396 1398
1396 1410
1396 1417
1396 1429
1396 1440
1396 1447
1396 1465
1396 1507
1396 1511
1396 1515
1396 1553
1396 1565
1396 1584
1396 1593
1397 1398
1397 1400
1397 1413
1397 1421
1397 1430
1397 1436
1397 1438
1397 1442
1397 1448
1397 1452
1397 1476
1397 1482
1397 1483
1397 1493
1397 1501
1397 1502
1397 1543
1397 1552
1397 1559
1397 1584
1397 1596
1397 1599
1398 1409
1398 1419
1398 1425
1398 1436
1398 1438
1398 1440
1398 1447
1398 1467
1398 1477
1398 1496
1398 1506
1398 1520
1398 1534
1398 1538
1398 1545
1398 1547
1398 1552
1398 1554
1398 1578
1398 1585
1399 1401
1399 1408
1399 1411
1399 1421
1399 1425
1399 1440
1399 1443
1399 1445
1399 1463
1399 1504
1399 1520
1399 1542
1399 1544
1399 1550
1399 1557
1399 1568
1399 1586
1399 1587
1399 1590
1400 1425
1400 1448
1400 1470
1400 1475
1400 1476
1400 1477
1400 1500
1400 1510
1400 1511
1400 1535
1400 1536
1400 1553
1400 1554
1400 1555
1400 1557
1400 1562
1400 1569
1400 1579
1400 1589
1400 1598
1401 1411
1401 1422
1401 1428
1401 1430
1401 1469
1401 1474
1401 1480
1401 1487
1401 1503
1401 1509
1401 1513
1401 1518
1401 1521
1401 1528
1401 1545
1401 1546
1401 1559
1401 1576
1402 1406
1402 1409
1402 1414
1402 1434
1402 1440
1402 1447
1402 1457
1402 1468
1402 1477
1402 1482
1402 1490
1402 1491
1402 1514
1402 1521
1402 1528
1402 1531
1402 1533
1402 1539
1402 1550
1402 1561
1402 1564
1402 1572
1403 1409
1403 1410
1403 1414
1403 1420
1403 1438
1403 1463
1403 1465
1403 1466
1403 1515
1403 1517
1403 1524
1403 1551
1403 1558
1403 1567
1403 1571
1403 1572
1403 1578
1403 1595
1403 1597
1404 1413
1404 1422
1404 1431
1404 1448
1404 1463
1404 1472
1404 1480
1404 1497
1404 1500
1404 1510
1404 1529
1404 1533
1404 1535
1404 1559
1404 1564
1404 1576
1404 1581
1405 1408
1405 1410
1405 1428
1405 1429
1405 1447
1405 1460
1405 1467
1405 1468
1405 1484
1405 1502
1405 1508
1405 1510
1405 1512
1405 1513
1405 1517
1405 1526
1405 1532
1405 1544
1405 1545
1405 1562
1405 1572
1405 1586
1406 1426
1406 1434
1406 1454
1406 1459
1406 1462
1406 1463
1406 1467
1406 1495
1406 1502
1406 1526
1406 1545
1406 1546
1406 1555
1406 1563
1406 1564
1406 1567
1406 1574
1406 1584
1407 1408
1407 1415
1407 1420
1407 1438
1407 1447
1407 1448
1407 1450
1407 1455
1407 1467
1407 1481
1407 1484
1407 1493
1407 1496
1407 1498
1407 1509
1407 1512
1407 1513
1407 1514
1407 1519
1407 1536
1407 1542
1407 1545
1407 1561
1407 1578
1407 1580
1407 1589
1407 1597
1408 1444
1408 1469
1408 1476
1408 1486
1408 1487
1408 1501
1408 1512
1408 1520
1408 1529
1408 1532
1408 1545
1408 1555
1408 1568
1409 1411
1409 1412
1409 1421
1409 1437
1409 1444
1409 1475
1409 1493
1409 1504
1409 1516
1409 1530
1409 1543
1409 1545
1409 1546
1409 1559
1409 1564
1410 1413
1410 1441
1410 1453
1410 1461
1410 1479
1410 1486
1410 1494
1410 1513
1410 1519
1410 1528
1410 1531
1410 1552
1410 1567
1410 1569
1410 1575
1411 1428
1411 1429
1411 1443
1411 1451
1411 1497
1411 1511
1411 1522
1411 1529
1411 1532
1411 1534
1411 1551
1411 1564
1411 1585
1411 1588
1411 1596
1412 1431
1412 1433
1412 1439
1412 1448
1412 1450
1412 1451
1412 1459
1412 1466
1412 1467
1412 1470
1412 1479
1412 1487
1412 1488
1412 1491
1412 1492
1412 1508
1412 1519
1412 1522
1412 1539
1412 1543
1412 1549
1412 1557
1412 1595
1412 1599
1413 1414
1413 1415
1413 1447
1413 1454
1413 1472
1413 1474
1413 1476
1413 1477
1413 1484
1413 1503
1413 1505
1413 1516
1413 1523
1413 1531
1413 1554
1413 1560
1413 1568
1413 1574
1413 1588
1413 1593
1413 1595
1414 1419
1414 1434
1414 1456
1414 1458
1414 1468
1414 1474
1414 1482
1414 1491
1414 1502
1414 1511
1414 1524
1414 1526
1414 1530
1414 1538
1414 1542
1414 1552
1414 1566
1414 1571
1414 1575
1414 1579
1414 1594
1415 1441
1415 1444
1415 1445
1415 1449
1415 1451
1415 1462
1415 1490
1415 1493
1415 1520
1415 1534
1415 1546
1415 1551
1415 1556
1415 1568
1415 1580
1415 1581
1415 1597
1416 1419
1416 1422
1416 1427
1416 1438
1416 1444
1416 1446
1416 1459
1416 1461
1416 1471
1416 1477
1416 1500
1416 1509
1416 1519
1416 1521
1416 1532
1416 1539
1416 1546
1416 1558
1416 1567
1416 1585
1416 1591
1416 1593
1417 1432
1417 1440
1417 1441
1417 1459
1417 1472
1417 1507
1417 1529
1417 1558
1417 1569
1417 1571
1417 1573
1418 1420
1418 1428
1418 1433
1418 1440
1418 1443
1418 1459
1418 1464
1418 1469
1418 1471
1418 1478
1418 1481
1418 1483
1418 1486
1418 1494
1418 1503
1418 1508
1418 1539
1418 1549
1418 1558
1418 1559
1418 1567
1418 1572
1418 1579
1418 1582
1418 1599
1419 1420
1419 1433
1419 1451
1419 1455
1419 1465
1419 1470
1419 1473
1419 1475
1419 1484
1419 1487
1419 1500
1419 1506
1419 1524
1419 1536
1419 1538
1419 1556
1419 1558
1419 1565
1419 1574
1419 1575
1419 1578
1420 1429
1420 1430
1420 1433
1420 1434
1420 1437
1420 1438
1420 1444
1420 1451
1420 1473
1420 1542
1420 1563
1420 1576
1420 1581
1420 1583
1420 1588
1420 1598
1421 1448
1421 1449
1421 1468
1421 1469
1421 1478
1421 1480
1421 1499
1421 1501
1421 1507
1421 1521
1421 1525
1421 1535
1421 1536
1421 1540
1421 1541
1421 1547
1421 1549
1421 1569
1421 1574
1421 1578
1422 1432
1422 1446
1422 1447
1422 1458
1422 1485
1422 1491
1422 1502
1422 1505
1422 1528
1422 1543
1422 1544
1422 1548
1422 1558
1422 1564
1422 1566
1422 1572
1422 1596
1423 1442
1423 1444
1423 1449
1423 1477
1423 1479
1423 1481
1423 1492
1423 1495
1423 1499
1423 1517
1423 1522
1423 1524
1423 1532
1423 1539
1423 1540
1423 1551
1423 1568
1423 1588
1423 1590
1424 1425
1424 1431
1424 1444
1424 1452
1424 1455
1424 1467
1424 1470
1424 1472
1424 1477
1424 1478
1424 1482
1424 1486
1424 1494
1424 1501
1424 1503
1424 1505
1424 1514
1424 1517
1424 1520
1424 1546
1424 1552
1424 1555
1424 1580
1424 1587
1424 1588
1424 1590
1424 1593
1425 1439
1425 1441
1425 1442
1425 1449
1425 1458
1425 1459
1425 1466
1425 1481
1425 1522
1425 1534
1425 1539
1425 1542
1425 1550
1425 1553
1425 1558
1425 1562
1425 1570
1425 1572
1425 1573
1426 1442
1426 1449
1426 1463
1426 1466
1426 1473
1426 1478
1426 1480
1426 1481
1426 1486
1426 1490
1426 1498
1426 1506
1426 1513
1426 1516
1426 1529
1426 1537
1426 1539
1426 1547
1426 1561
1426 1564
1426 1578
1426 1588
1426 1597
1427 1443
1427 1449
1427 1463
1427 1475
1427 1478
1427 1495
1427 1501
1427 1530
1427 1531
1427 1550
1427 1551
1427 1577
1427 1596
1427 1598
1428 1438
1428 1442
1428 1461
1428 1467
1428 1475
1428 1495
1428 1497
1428 1501
1428 1515
1428 1520
1428 1524
1428 1540
1428 1543
1428 1552
1428 1567
1428 1573
1428 1580
1428 1581
1428 1585
1428 1593
1428 1596
1428 1598
1429 1433
1429 1443
1429 1447
1429 1466
1429 1472
1429 1488
1429 1491
1429 1494
1429 1500
1429 1506
1429 1514
1429 1517
1429 1536
1429 1544
1429 1564
1429 1568
1430 1442
1430 1444
1430 1473
1430 1490
1430 1503
1430 1521
1430 1522
1430 1523
1430 1524
1430 1529
1430 1541
1430 1549
1430 1554
1430 1556
1430 1562
1430 1569
1430 1585
1430 1589
1431 1441
1431 1449
1431 1450
1431 1452
1431 1465
1431 1475
1431 1476
1431 1484
1431 1493
1431 1506
1431 1517
1431 1533
1431 1540
1431 1542
1431 1547
1431 1554
1431 1555
1431 1556
1431 1577
1431 1584
1431 1594
1432 1440
1432 1441
1432 1449
1432 1450
1432 1459
1432 1473
1432 1478
1432 1488
1432 1493
1432 1504
1432 1508
1432 1516
1432 1522
1432 1523
1432 1540
1432 1546
1432 1553
1432 1569
1432 1573
1432 1595
1433 1436
1433 1443
1433 1446
1433 1456
1433 1485
1433 1494
1433 1518
1433 1527
1433 1537
1433 1559
1433 1561
1433 1567
1433 1590
1433 1591
1433 1890
1434 1439
1434 1470
1434 1471
1434 1492
1434 1524
1434 1529
1434 1535
1434 1542
1434 1550
1434 1555
1434 1561
1434 1563
1434 1895
1435 1437
1435 1443
1435 1446
1435 1447
1435 1482
1435 1497
1435 1505
1435 1512
1435 1515
1435 1532
1435 1534
1435 1562
1435 1563
1435 1578
1435 1582
1435 1583
1435 1588
1436 1444
1436 1445
1436 1449
1436 1461
1436 1464
1436 1467
1436 1469
1436 1471
1436 1480
1436 1481
1436 1483
1436 1486
1436 1488
1436 1492
1436 1499
1436 1504
1436 1526
1436 1529
1436 1534
1436 1539
1436 1546
1436 1590
1436 1593
1437 1443
1437 1458
1437 1461
1437 1463
1437 1468
1437 1488
1437 1507
1437 1508
1437 1511
1437 1522
1437 1525
1437 1527
1437 1541
1437 1546
1437 1550
1437 1551
1437 1558
1437 1569
1437 1576
1437 1581
1437 1595
1438 1439
1438 1443
1438 1445
1438 1447
1438 1450
1438 1460
1438 1489
1438 1496
1438 1498
1438 1509
1438 1519
1438 1522
1438 1524
1438 1537
1438 1542
1438 1546
1438 1555
1438 1558
1438 1564
1438 1565
1438 1566
1438 1578
1438 1590
1439 1444
1439 1450
1439 1454
1439 1455
1439 1464
1439 1484
1439 1492
1439 1500
1439 1518
1439 1522
1439 1523
1439 1531
1439 1550
1439 1556
1439 1562
1439 1569
1439 1570
1439 1571
1439 1578
1439 1582
1439 1585
1439 1587
1439 1594
1440 1442
1440 1448
1440 1449
1440 1462
1440 1467
1440 1508
1440 1509
1440 1518
1440 1535
1440 1548
1441 1447
1441 1454
1441 1469
1441 1501
1441 1503
1441 1510
1441 1515
1441 1520
1441 1528
1441 1548
1441 1551
1441 1561
1441 1570
1441 1589
1442 1487
1442 1493
1442 1496
1442 1515
1442 1520
1442 1536
1442 1540
1442 1551
1442 1557
1442 1571
1442 1573
1442 1591
1443 1448
1443 1456
1443 1467
1443 1472
1443 1474
1443 1475
1443 1480
1443 1486
1443 1502
1443 1517
1443 1519
1443 1523
1443 1524
1443 1527
1443 1528
1443 1534
1443 1542
1443 1567
1443 1573
1443 1576
1443 1588
1443 1594
1444 1451
1444 1457
1444 1462
1444 1480
1444 1483
1444 1485
1444 1517
1444 1524
1444 1540
1444 1554
1444 1562
1444 1574
1444 1598
1445 1449
1445 1458
1445 1460
1445 1469
1445 1482
1445 1504
1445 1530
1445 1547
1445 1553
1445 1580
1445 1583
1445 1589
1445 1598
1446 1457
1446 1466
1446 1471
1446 1474
1446 1479
1446 1486
1446 1487
1446 1493
1446 1506
1446 1516
1446 1537
1446 1538
1446 1549
1446 1562
1446 1566
1446 1572
1446 1575
1446 1577
1446 1578
1446 1585
1446 1598
1447 1457
1447 1459
1447 1471
1447 1472
1447 1497
1447 1517
1447 1548
1447 1576
1447 1591
1447 1830
1448 1457
1448 1467
1448 1478
1448 1510
1448 1511
1448 1522
1448 1541
1448 1542
1448 1553
1448 1559
1448 1591
1449 1451
1449 1453
1449 1456
1449 1460
1449 1473
1449 1480
1449 1484
1449 1488
1449 1490
1449 1500
1449 1501
1449 1507
1449 1508
1449 1517
1449 1520
1449 1524
1449 1541
1449 1554
1449 1561
1449 1563
1449 1576
1449 1581
1449 1993
1450 1451
1450 1452
1450 1481
1450 1490
1450 1491
1450 1500
1450 1519
1450 1527
1450 1541
1450 1542
1450 1553
1450 1570
1450 1596
1451 1454
1451 1493
1451 1506
1451 1507
1451 1520
1451 1529
1451 1531
1451 1541
1451 1546
1451 1568
1451 1573
1451 1575
1452 1464
1452 1474
1452 1482
1452 1484
1452 1488
1452 1511
1452 1520
1452 1522
1452 1532
1452 1533
1452 1535
1452 1538
1452 1543
1452 1556
1452 1564
1452 1573
1452 1578
1452 1592
1453 1474
1453 1477
1453 1488
1453 1495
1453 1542
1453 1560
1453 1564
1453 1568
1453 1571
1453 1593
1454 1464
1454 1474
1454 1483
1454 1494
1454 1532
1454 1534
1454 1555
1454 1584
1454 1598
1455 1459
1455 1479
1455 1505
1455 1515
1455 1537
1455 1539
1455 1573
1455 1574
1455 1579
1455 1582
1455 1583
1455 1588
1455 1597
1456 1457
1456 1471
1456 1473
1456 1501
1456 1505
1456 1512
1456 1513
1456 1514
1456 1523
1456 1524
1456 1530
1456 1554
1456 1560
1456 1570
1456 1581
1456 1583
1456 1587
1456 1855
1457 1481
1457 1483
1457 1496
1457 1498
1457 1499
1457 1514
1457 1534
1457 1540
1457 1548
1457 1587
1457 1589
1457 1592
1458 1464
1458 1468
1458 1476
1458 1480
1458 1488
1458 1490
1458 1495
1458 1524
1458 1571
1459 1460
1459 1464
1459 1477
1459 1488
1459 1492
1459 1496
1459 1502
1459 1505
1459 1507
1459 1515
1459 1557
1459 1561
1459 1565
1459 1568
1459 1581
1459 1593
1460 1470
1460 1476
1460 1479
1460 1490
1460 1492
1460 1501
1460 1509
1460 1515
1460 1524
1460 1525
1460 1530
1460 1557
1460 1567
1460 1572
1460 1581
1461 1468
1461 1470
1461 1471
1461 1487
1461 1488
1461 1495
1461 1499
1461 1500
1461 1521
1461 1524
1461 1525
1461 1536
1461 1552
1461 1554
1461 1572
1461 1580
1461 1581
1461 1593
1462 1467
1462 1468
1462 1489
1462 1503
1462 1506
1462 1516
1462 1517
1462 1526
1462 1529
1462 1535
1462 1544
1462 1546
1462 1561
1462 1563
1462 1570
1462 1577
1462 1582
1462 1595
1463 1467
1463 1473
1463 1493
1463 1499
1463 1505
1463 1526
1463 1527
1463 1538
1463 1539
1463 1551
1463 1582
1463 1585
1463 1593
1463 1597
1464 1479
1464 1480
1464 1494
1464 1499
1464 1501
1464 1522
1464 1523
1464 1524
1464 1547
1464 1555
1464 1560
1464 1562
1464 1563
1464 1568
1464 1577
1464 1580
1464 1582
1465 1474
1465 1479
1465 1480
1465 1492
1465 1500
1465 1514
1465 1518
1465 1535
1465 1536
1465 1539
1465 1543
1465 1546
1465 1576
1465 1579
1465 1581
1465 1586
1465 1588
1465 1596
1465 1597
1466 1493
1466 1494
1466 1499
1466 1502
1466 1515
1466 1519
1466 1537
1466 1574
1466 1580
1466 1582
1466 1588
1467 1476
1467 1501
1467 1515
1467 1532
1467 1546
1467 1554
1467 1555
1467 1569
1467 1572
1468 1473
1468 1474
1468 1533
1468 1549
1468 1551
1468 1557
1468 1559
1468 1561
1468 1573
1468 1582
1468 1586
1468 1591
1469 1470
1469 1521
1469 1534
1469 1550
1469 1559
1469 1564
1469 1569
1469 1578
1469 1582
1469 1597
1470 1486
1470 1489
1470 1497
1470 1513
1470 1529
1470 1538
1470 1539
1470 1545
1470 1562
1470 1567
1470 1577
1470 1583
1470 1593
1470 1598
1471 1476
1471 1494
1471 1508
1471 1518
1471 1536
1471 1560
1471 1564
1471 1565
1471 1575
1471 1580
1472 1485
1472 1497
1472 1507
1472 1509
1472 1528
1472 1532
1472 1533
1472 1536
1472 1545
1472 1564
1472 1585
1472 1591
1473 1486
1473 1498
1473 1503
1473 1506
1473 1507
1473 1528
1473 1529
1473 1534
1473 1535
1473 1562
1473 1581
1473 1582
1473 1584
1473 1585
1473 1597
1474 1480
1474 1493
1474 1514
1474 1517
1474 1520
1474 1539
1474 1555
1474 1564
1474 1595
1475 1496
1475 1500
1475 1502
1475 1506
1475 1537
1475 1542
1475 1547
1475 1560
1475 1561
1475 1563
1475 1570
1475 1581
1475 1582
1476 1479
1476 1481
1476 1483
1476 1513
1476 1514
1476 1515
1476 1521
1476 1536
1476 1563
1476 1564
1476 1567
1476 1576
1476 1582
1476 1583
1476 1588
1476 1593
1476 1598
1477 1478
1477 1489
1477 1501
1477 1514
1477 1519
1477 1525
1477 1532
1477 1538
1477 1547
1477 1555
1477 1560
1477 1562
1477 1565
1477 1570
1477 1574
1477 1590
1478 1497
1478 1504
1478 1514
1478 1517
1478 1525
1478 1532
1478 1538
1478 1540
1478 1545
1478 1546
1478 1553
1478 1563
1478 1574
1478 1585
1478 1597
1479 1481
1479 1488
1479 1489
1479 1517
1479 1519
1479 1520
1479 1525
1479 1558
1479 1560
1479 1591
1480 1482
1480 1490
1480 1499
1480 1509
1480 1545
1480 1551
1480 1556
1480 1570
1480 1571
1480 1573
1480 1580
1480 1586
1480 1588
1481 1484
1481 1493
1481 1501
1481 1504
1481 1522
1481 1531
1481 1533
1481 1543
1481 1544
1481 1547
1481 1576
1482 1489
1482 1496
1482 1503
1482 1535
1482 1536
1482 1542
1482 1550
1482 1552
1482 1562
1482 1574
1482 1582
1482 1588
1482 1589
1482 1596
1483 1486
1483 1502
1483 1507
1483 1513
1483 1532
1483 1547
1483 1550
1483 1552
1483 1576
1483 1585
1483 1592
1483 1597
1484 1499
1484 1501
1484 1505
1484 1514
1484 1534
1484 1540
1484 1569
1485 1486
1485 1490
1485 1507
1485 1511
1485 1512
1485 1522
1485 1525
1485 1526
1485 1545
1485 1549
1485 1551
1485 1552
1485 1583
1485 1585
1485 1586
1485 1595
1485 1598
1486 1494
1486 1496
1486 1497
1486 1499
1486 1503
1486 1511
1486 1534
1486 1536
1486 1546
1486 1554
1486 1559
1486 1568
1486 1571
1486 1581
1487 1500
1487 1522
1487 1535
1487 1548
1487 1550
1487 1555
1487 1563
1487 1565
1487 1580
1487 1581
1487 1582
1487 1588
1487 1592
1487 1593
1488 1503
1488 1508
1488 1509
1488 1516
1488 1517
1488 1526
1488 1527
1488 1530
1488 1542
1488 1547
1488 1555
1488 1562
1488 1572
1488 1575
1488 1580
1489 1490
1489 1500
1489 1505
1489 1521
1489 1528
1489 1533
1489 1539
1489 1560
1489 1576
1489 1580
1489 1585
1489 1589
1490 1491
1490 1506
1490 1512
1490 1515
1490 1517
1490 1523
1490 1533
1490 1557
1490 1563
1490 1569
1491 1496
1491 1504
1491 1507
1491 1508
1491 1537
1491 1541
1491 1545
1491 1551
1491 1553
1491 1554
1491 1573
1491 1579
1491 1595
1492 1539
1492 1542
1492 1544
1492 1545
1492 1547
1492 1580
1492 1597
1492 1599
1493 1512
1493 1535
1493 1540
1493 1559
1493 1589
1494 1505
1494 1534
1494 1538
1494 1548
1494 1552
1494 1558
1494 1563
1494 1564
1494 1567
1494 1573
1494 1577
1494 1579
1494 1586
1494 1589
1495 1502
1495 1503
1495 1542
1495 1563
1495 1567
1495 1575
1495 1583
1495 1585
1495 1595
1496 1524
1496 1531
1496 1559
1496 1561
1496 1566
1496 1572
1496 1575
1496 1595
1496 1596
1497 1499
1497 1501
1497 1504
1497 1505
1497 1518
1497 1536
1497 1543
1497 1559
1497 1565
1497 1572
1497 1579
1497 1580
1497 1581
1497 1582
1497 1583
1497 1584
1497 1586
1497 1589
1497 1597
1498 1499
1498 1502
1498 1507
1498 1511
1498 1514
1498 1524
1498 1539
1498 1555
1498 1558
1498 1565
1498 1577
1498 1588
1498 1592
1499 1504
1499 1527
1499 1541
1499 1547
1499 1570
1499 1572
1499 1573
1499 1581
1499 1583
1499 1588
1499 1598
1500 1502
1500 1507
1500 1508
1500 1512
1500 1514
1500 1516
1500 1536
1500 1549
1500 1551
1500 1569
1500 1581
1500 1583
1500 1589
1500 1590
1500 1592
1501 1510
1501 1511
1501 1513
1501 1528
1501 1538
1501 1540
1501 1547
1501 1562
1501 1576
1501 1579
1501 1584
1501 1585
1501 1589
1502 1506
1502 1507
1502 1511
1502 1531
1502 1540
1502 1546
1502 1550
1502 1559
1502 1560
1502 1564
1502 1577
1502 1585
1503 1521
1503 1524
1503 1529
1503 1547
1503 1567
1503 1573
1503 1580
1503 1582
1503 1593
1503 1599
1504 1519
1504 1526
1504 1544
1504 1572
1504 1575
1504 1589
1504 1590
1504 1594
1505 1516
1505 1535
1505 1542
1505 1551
1505 1553
1505 1567
1506 1511
1506 1515
1506 1521
1506 1523
1506 1525
1506 1561
1506 1574
1506 1592
1506 1597
1507 1511
1507 1530
1507 1545
1507 1546
1507 1552
1507 1560
1507 1586
1507 1595
1507 1596
1508 1511
1508 1515
1508 1566
1508 1573
1508 1574
1508 1580
1508 1588
1508 1592
1509 1526
1509 1546
1509 1565
1509 1567
1509 1569
1509 1575
1509 1578
1509 1584
1509 1591
1509 1592
1510 1516
1510 1517
1510 1520
1510 1522
1510 1528
1510 1531
1510 1537
1510 1549
1510 1553
1510 1554
1510 1565
1510 1578
1510 1579
1510 1597
1510 1598
1511 1517
1511 1533
1511 1546
1511 1559
1511 1562
1511 1563
1511 1575
1511 1586
1511 1589
1511 1592
1512 1527
1512 1540
1512 1542
1512 1544
1512 1559
1512 1575
1512 1576
1512 1578
1512 1582
1512 1589
1512 1590
1512 1595
1512 1596
1512 1599
1513 1517
1513 1521
1513 1531
1513 1540
1513 1586
1513 1590
1514 1524
1514 1532
1514 1538
1514 1565
1514 1591
1514 1596
1515 1520
1515 1533
1515 1545
1515 1555
1515 1561
1515 1562
1515 1568
1515 1572
1515 1581
1515 1588
1516 1519
1516 1523
1516 1533
1516 1546
1516 1548
1516 1553
1516 1563
1516 1575
1516 1587
1516 1591
1516 1593
1517 1520
1517 1548
1517 1549
1517 1568
1517 1581
1517 1582
1517 1584
1517 1595
1517 1947
1518 1525
1518 1528
1518 1551
1518 1560
1518 1571
1518 1575
1518 1578
1518 1580
1518 1582
1518 1597
1519 1522
1519 1524
1519 1529
1519 1544
1519 1551
1519 1571
1519 1575
1519 1579
1519 1583
1520 1536
1520 1550
1520 1561
1520 1562
1520 1570
1520 1572
1520 1583
1520 1587
1520 1588
1520 1594
1521 1535
1521 1537
1521 1567
1521 1583
1522 1527
1522 1529
1522 1533
1522 1538
1522 1578
1522 1582
1523 1525
1523 1555
1523 1557
1523 1569
1523 1585
1523 1587
1524 1539
1524 1541
1524 1544
1524 1548
1524 1559
1524 1572
1524 1574
1524 1576
1524 1581
1525 1534
1525 1564
1525 1565
1525 1586
1525 1599
1526 1551
1526 1565
1526 1571
1526 1580
1526 1595
1526 1596
1527 1531
1527 1536
1527 1555
1527 1568
1527 1569
1527 1572
1527 1573
1527 1589
1528 1531
1528 1535
1528 1537
1528 1545
1528 1549
1528 1552
1528 1560
1528 1586
1528 1589
1528 1595
1528 1596
1529 1542
1529 1550
1529 1552
1529 1554
1529 1555
1529 1560
1529 1563
1529 1564
1529 1566
1529 1585
1529 1592
1530 1535
1530 1547
1530 1556
1530 1558
1530 1565
1530 1568
1530 1573
1530 1574
1530 1580
1530 1582
1530 1585
1530 1589
1531 1536
1531 1560
1531 1595
1531 1596
1532 1550
1532 1551
1532 1552
1532 1559
1532 1598
1533 1547
1533 1551
1533 1552
1533 1562
1533 1592
1534 1536
1534 1540
1534 1542
1534 1554
1534 1559
1534 1566
1534 1570
1534 1572
1534 1574
1534 1575
1534 1592
1535 1547
1535 1548
1535 1568
1535 1596
1535 1599
1536 1558
1536 1571
1536 1581
1536 1583
1536 1586
1536 1598
1536 1924
1537 1573
1537 1574
1537 1582
1537 1585
1537 1594
1538 1541
1538 1555
1538 1556
1538 1562
1538 1566
1538 1567
1538 1575
1538 1585
1538 1587
1538 1589
1538 1596
1539 1546
1539 1549
1539 1557
1539 1565
1539 1571
1539 1573
1539 1590
1539 1592
1539 1598
1540 1541
1540 1550
1540 1552
1540 1561
1540 1562
1540 1563
1540 1578
1540 1589
1540 1590
1540 1593
1541 1546
1541 1552
1541 1565
1541 1580
1542 1545
1542 1546
1542 1551
1542 1553
1542 1558
1542 1578
1542 1583
1542 1584
1542 1843
1543 1555
1543 1564
1543 1574
1543 1592
1543 1598
1543 1599
1544 1590
1545 1598
1546 1555
1546 1568
1546 1576
1546 1583
1547 1555
1547 1557
1547 1563
1547 1576
1547 1581
1547 1588
1547 1590
1547 1594
1548 1552
1548 1566
1548 1570
1549 1563
1549 1564
1549 1575
1549 1580
1549 1592
1549 1594
1549 1597
1550 1554
1550 1566
1550 1567
1550 1582
1550 1591
1550 1597
1551 1565
1551 1572
1551 1583
1551 1593
1552 1561
1552 1591
1552 1595
1552 1596
1552 1597
1553 1557
1553 1574
1553 1579
1553 1588
1553 1591
1553 1595
1554 1562
1554 1586
1554 1599
1555 1558
1555 1575
1555 1576
1555 1599
1556 1565
1556 1585
1556 1590
1556 1593
1557 1570
1557 1582
1558 1572
1558 1591
1558 1594
1559 1578
1559 1595
1559 1598
1560 1572
1560 1576
1560 1578
1560 1584
1561 1563
1561 1566
1561 1567
1561 1571
1561 1596
1562 1583
1563 1565
1563 1572
1563 1574
1563 1585
1564 1576
1564 1584
1564 1588
1564 1593
1565 1569
1565 1570
1565 1575
1565 1576
1565 1589
1565 1597
1566 1572
1566 1576
1566 1579
1566 1582
1566 1585
1566 1589
1567 1575
1567 1583
1567 1591
1568 1574
1568 1593
1569 1575
1569 1596
1570 1575
1571 1580
1571 1587
1571 1594
1571 1595
1571 1599
1572 1594
1573 1579
1573 1581
1573 1585
1573 1591
1573 1599
1574 1578
1574 1592
1574 1593
1575 1578
1575 1582
1575 1595
1575 1599
1576 1583
1576 1584
1576 1594
1577 1597
1578 1582
1578 1592
1578 1594
1579 1582
1579 1595
1581 1586
1581 1587
1582 1583
1582 1584
1582 1592
1582 1741
1584 1585
1585 1591
1585 1596
1587 1591
1587 1596
1587 1597
1588 1594
1588 1597
1589 1590
1590 1591
1591 1599
1596 1597
1600 1624
1600 1626
1600 1630
1600 1636
1600 1637
1600 1638
1600 1662
1600 1682
1600 1705
1600 1718
1600 1754
1600 1769
1600 1770
1600 1785
1600 1800
1600 1802
1600 1810
1600 1813
1600 1852
1600 1861
1600 1899
1600 1906
1600 1908
1600 1918
1600 1930
1600 1949
1600 1951
1600 1959
1600 1968
1600 1985
1601 1602
1601 1612
1601 1637
1601 1641
1601 1643
1601 1664
1601 1677
1601 1678
1601 1684
1601 1686
1601 1689
1601 1694
1601 1704
1601 1709
1601 1710
1601 1716
1601 1722
1601 1742
1601 1747
1601 1749
1601 1750
1601 1800
1601 1809
1601 1819
1601 1836
1601 1837
1601 1840
1601 1844
1601 1849
1601 1850
1601 1864
1601 1868
1601 1870
1601 1877
1601 1879
1601 1893
1601 1909
1601 1911
1601 1915
1601 1929
1601 1940
1601 1942
1601 1951
1601 1959
1601 1967
1601 1986
1601 1991
1602 1635
1602 1636
1602 1644
1602 1651
1602 1687
1602 1691
1602 1700
1602 1728
1602 1759
1602 1812
1602 1835
1602 1858
1602 1870
1602 1877
1602 1879
1602 1882
1602 1892
1602 1893
1602 1899
1602 1903
1602 1906
1602 1931
1602 1952
1602 1961
1602 1967
1603 1611
1603 1616
1603 1617
1603 1626
1603 1663
1603 1676
1603 1680
1603 1682
1603 1694
1603 1708
1603 1720
1603 1724
1603 1728
1603 1734
1603 1736
1603 1740
1603 1773
1603 1774
1603 1777
1603 1781
1603 1791
1603 1795
1603 1796
1603 1807
1603 1811
1603 1812
1603 1822
1603 1825
1603 1827
1603 1834
1603 1836
1603 1840
1603 1863
1603 1873
1603 1881
1603 1884
1603 1888
1603 1931
1603 1936
1603 1959
1603 1967
1603 1968
1603 1970
1603 1973
1603 1999
1604 1608
1604 1610
1604 1612
1604 1629
1604 1653
1604 1665
1604 1683
1604 1685
1604 1691
1604 1740
1604 1750
1604 1756
1604 1771
1604 1780
1604 1804
1604 1807
1604 1809
1604 1811
1604 1820
1604 1828
1604 1841
1604 1865
1604 1872
1604 1873
1604 1881
1604 1891
1604 1894
1604 1895
1604 1900
1604 1916
1604 1934
1604 1947
1604 1957
1604 1959
1604 1969
1604 1998
1605 1621
1605 1628
1605 1637
1605 1644
1605 1659
1605 1674
1605 1679
1605 1689
1605 1699
1605 1709
1605 1713
1605 1717
1605 1718
1605 1724
1605 1746
1605 1749
1605 1750
1605 1758
1605 1761
1605 1790
1605 1795
1605 1796
1605 1801
1605 1805
1605 1809
1605 1835
1605 1858
1605 1862
1605 1879
1605 1884
1605 1888
1605 1906
1605 1917
1605 1918
1605 1920
1605 1929
1605 1930
1605 1945
1605 1954
1605 1963
1605 1967
1605 1975
1605 1978
1605 1979
1606 1624
1606 1626
1606 1635
1606 1639
1606 1655
1606 1656
1606 1663
1606 1677
1606 1705
1606 1722
1606 1741
1606 1744
1606 1745
1606 1749
1606 1758
1606 1765
1606 1773
1606 1781
1606 1795
1606 1805
1606 1808
1606 1811
1606 1824
1606 1871
1606 1874
1606 1875
1606 1905
1606 1918
1606 1934
1606 1954
1606 1955
1606 1957
1606 1960
1606 1965
1606 1978
1606 1998
1607 1613
1607 1619
1607 1622
1607 1660
1607 1661
1607 1662
1607 1699
1607 1708
1607 1712
1607 1716
1607 1756
1607 1757
1607 1760
1607 1761
1607 1769
1607 1783
1607 1784
1607 1786
1607 1788
1607 1804
1607 1807
1607 1811
1607 1812
1607 1822
1607 1827
1607 1831
1607 1832
1607 1840
1607 1844
1607 1848
1607 1862
1607 1885
1607 1890
1607 1891
1607 1898
1607 1919
1607 1929
1607 1942
1607 1958
1607 1961
1607 1972
1607 1974
1607 1981
1607 1992
1607 1997
1607 1998
1607 1999
1608 1614
1608 1620
1608 1622
1608 1626
1608 1649
1608 1652
1608 1671
1608 1687
1608 1698
1608 1711
1608 1715
1608 1717
1608 1754
1608 1765
1608 1766
1608 1769
1608 1770
1608 1774
1608 1780
1608 1782
1608 1828
1608 1868
1608 1881
1608 1888
1608 1890
1608 1911
1608 1924
1608 1930
1608 1932
1608 1936
1608 1939
1608 1954
1608 1955
1608 1959
1608 1972
1608 1978
1608 1981
1609 1611
1609 1619
1609 1639
1609 1640
1609 1661
1609 1673
1609 1677
1609 1679
1609 1695
1609 1714
1609 1719
1609 1720
1609 1729
1609 1730
1609 1737
1609 1747
1609 1762
1609 1773
1609 1790
1609 1795
1609 1802
1609 1816
1609 1818
1609 1835
1609 1839
1609 1846
1609 1849
1609 1888
1609 1895
1609 1896
1609 1900
1609 1907
1609 1913
1609 1921
1609 1930
1609 1949
1609 1955
1609 1960
1609 1979
1609 1993
1610 1634
1610 1635
1610 1652
1610 1656
1610 1661
1610 1664
1610 1682
1610 1718
1610 1736
1610 1758
1610 1762
1610 1764
1610 1769
1610 1801
1610 1826
1610 1829
1610 1848
1610 1862
1610 1864
1610 1884
1610 1893
1610 1896
1610 1899
1610 1903
1610 1904
1610 1911
1610 1932
1610 1952
1610 1954
1610 1973
1610 1976
1610 1978
1610 1995
1611 1612
1611 1616
1611 1636
1611 1641
1611 1654
1611 1664
1611 1710
1611 1713
1611 1720
1611 1722
1611 1728
1611 1731
1611 1736
1611 1747
1611 1757
1611 1761
1611 1771
1611 1779
1611 1782
1611 1787
1611 1788
1611 1793
1611 1800
1611 1801
1611 1802
1611 1803
1611 1839
1611 1857
1611 1865
1611 1877
1611 1896
1611 1899
1611 1910
1611 1920
1611 1937
1611 1945
1611 1948
1611 1952
1611 1973
1611 1987
1611 1996
1611 1998
1612 1619
1612 1620
1612 1626
1612 1641
1612 1660
1612 1669
1612 1673
1612 1677
1612 1683
1612 1684
1612 1694
1612 1714
1612 1720
1612 1722
1612 1729
1612 1737
1612 1739
1612 1746
1612 1747
1612 1769
1612 1771
1612 1775
1612 1784
1612 1800
1612 1808
1612 1810
1612 1833
1612 1842
1612 1845
1612 1852
1612 1853
1612 1858
1612 1879
1612 1884
1612 1886
1612 1915
1612 1919
1612 1922
1612 1925
1612 1928
1612 1929
1612 1930
1612 1938
1612 1939
1612 1941
1612 1956
1612 1967
1612 1978
1612 1979
1612 1983
1612 1991
1613 1623
1613 1628
1613 1661
1613 1686
1613 1689
1613 1690
1613 1697
1613 1698
1613 1704
1613 1715
1613 1717
1613 1733
1613 1739
1613 1746
1613 1795
1613 1811
1613 1825
1613 1833
1613 1838
1613 1842
1613 1845
1613 1846
1613 1861
1613 1896
1613 1907
1613 1908
1613 1913
1613 1918
1613 1921
1613 1944
1613 1945
1613 1948
1613 1976
1613 1977
1613 1985
1613 1986
1614 1624
1614 1630
1614 1633
1614 1634
1614 1649
1614 1663
1614 1681
1614 1685
1614 1721
1614 1744
1614 1747
1614 1749
1614 1750
1614 1753
1614 1761
1614 1768
1614 1799
1614 1806
1614 1811
1614 1819
1614 1843
1614 1844
1614 1851
1614 1860
1614 1866
1614 1871
1614 1879
1614 1883
1614 1885
1614 1896
1614 1909
1614 1910
1614 1911
1614 1912
1614 1924
1614 1932
1614 1934
1614 1935
1614 1945
1614 1961
1614 1968
1614 1971
1614 1980
1614 1985
1614 1991
1615 1619
1615 1621
1615 1624
1615 1633
1615 1634
1615 1652
1615 1655
1615 1656
1615 1668
1615 1718
1615 1719
1615 1720
1615 1723
1615 1739
1615 1746
1615 1752
1615 1753
1615 1756
1615 1759
1615 1761
1615 1780
1615 1786
1615 1790
1615 1792
1615 1801
1615 1805
1615 1827
1615 1828
1615 1831
1615 1843
1615 1862
1615 1863
1615 1869
1615 1878
1615 1887
1615 1918
1615 1933
1615 1966
1615 1968
1615 1979
1616 1627
1616 1637
1616 1639
1616 1665
1616 1688
1616 1693
1616 1707
1616 1712
1616 1721
1616 1734
1616 1740
1616 1741
1616 1743
1616 1763
1616 1781
1616 1796
1616 1803
1616 1810
1616 1813
1616 1826
1616 1841
1616 1843
1616 1868
1616 1880
1616 1885
1616 1893
1616 1895
1616 1903
1616 1906
1616 1914
1616 1915
1616 1924
1616 1928
1616 1932
1616 1964
1616 1971
1616 1986
1616 1988
1616 1994
1616 1996
1616 1997
1617 1621
1617 1655
1617 1656
1617 1670
1617 1673
1617 1674
1617 1679
1617 1686
1617 1731
1617 1734
1617 1742
1617 1745
1617 1788
1617 1811
1617 1813
1617 1822
1617 1824
1617 1852
1617 1856
1617 1864
1617 1873
1617 1875
1617 1881
1617 1885
1617 1887
1617 1888
1617 1892
1617 1893
1617 1902
1617 1920
1617 1928
1617 1937
1617 1940
1617 1944
1617 1946
1617 1967
1617 1975
1617 1976
1617 1978
1617 1982
1617 1987
1617 1988
1617 1999
1618 1620
1618 1629
1618 1632
1618 1643
1618 1655
1618 1658
1618 1670
1618 1672
1618 1692
1618 1703
1618 1730
1618 1734
1618 1769
1618 1778
1618 1809
1618 1814
1618 1818
1618 1824
1618 1826
1618 1841
1618 1872
1618 1894
1618 1899
1618 1901
1618 1918
1618 1921
1618 1953
1618 1961
1618 1963
1618 1977
1618 1983
1618 1986
1618 1987
1618 1991
1618 1993
1618 1997
1619 1622
1619 1625
1619 1653
1619 1654
1619 1656
1619 1670
1619 1674
1619 1684
1619 1687
1619 1691
1619 1692
1619 1699
1619 1701
1619 1705
1619 1718
1619 1733
1619 1734
1619 1749
1619 1750
1619 1764
1619 1767
1619 1783
1619 1797
1619 1799
1619 1801
1619 1825
1619 1829
1619 1832
1619 1838
1619 1861
1619 1866
1619 1867
1619 1883
1619 1885
1619 1892
1619 1905
1619 1914
1619 1920
1619 1924
1619 1933
1619 1934
1619 1961
1619 1972
1620 1627
1620 1630
1620 1632
1620 1636
1620 1659
1620 1661
1620 1670
1620 1692
1620 1703
1620 1705
1620 1706
1620 1718
1620 1739
1620 1752
1620 1773
1620 1782
1620 1796
1620 1818
1620 1821
1620 1823
1620 1824
1620 1829
1620 1834
1620 1843
1620 1848
1620 1865
1620 1867
1620 1886
1620 1898
1620 1906
1620 1955
1620 1970
1620 1972
1620 1973
1620 1984
1620 1991
1621 1627
1621 1634
1621 1651
1621 1654
1621 1658
1621 1690
1621 1698
1621 1726
1621 1729
1621 1731
1621 1751
1621 1756
1621 1764
1621 1765
1621 1784
1621 1785
1621 1786
1621 1800
1621 1805
1621 1811
1621 1815
1621 1836
1621 1837
1621 1842
1621 1845
1621 1848
1621 1849
1621 1850
1621 1857
1621 1864
1621 1879
1621 1928
1621 1943
1621 1965
1621 1996
1622 1625
1622 1629
1622 1707
1622 1710
1622 1735
1622 1736
1622 1762
1622 1764
1622 1771
1622 1774
1622 1780
1622 1782
1622 1797
1622 1803
1622 1837
1622 1856
1622 1883
1622 1908
1622 1954
1622 1968
1622 1985
1623 1632
1623 1649
1623 1650
1623 1657
1623 1674
1623 1677
1623 1708
1623 1713
1623 1726
1623 1733
1623 1735
1623 1738
1623 1763
1623 1781
1623 1785
1623 1798
1623 1802
1623 1812
1623 1828
1623 1831
1623 1839
1623 1850
1623 1854
1623 1865
1623 1870
1623 1874
1623 1886
1623 1918
1623 1929
1623 1932
1623 1937
1623 1940
1623 1951
1623 1965
1623 1967
1623 1978
1624 1625
1624 1689
1624 1704
1624 1714
1624 1740
1624 1745
1624 1756
1624 1759
1624 1760
1624 1778
1624 1782
1624 1796
1624 1807
1624 1820
1624 1827
1624 1828
1624 1830
1624 1841
1624 1844
1624 1862
1624 1865
1624 1890
1624 1891
1624 1896
1624 1899
1624 1900
1624 1917
1624 1935
1624 1939
1624 1942
1624 1949
1624 1951
1624 1959
1624 1969
1624 1988
1624 1989
1624 1990
1624 1997
1625 1637
1625 1640
1625 1660
1625 1664
1625 1668
1625 1672
1625 1698
1625 1706
1625 1717
1625 1723
1625 1733
1625 1735
1625 1749
1625 1771
1625 1779
1625 1782
1625 1798
1625 1830
1625 1836
1625 1839
1625 1842
1625 1843
1625 1865
1625 1869
1625 1891
1625 1905
1625 1909
1625 1910
1625 1930
1625 1935
1625 1937
1625 1950
1625 1952
1625 1962
1625 1974
1625 1976
1625 1977
1625 1979
1625 1992
1625 1997
1626 1628
1626 1634
1626 1639
1626 1642
1626 1657
1626 1666
1626 1667
1626 1669
1626 1676
1626 1677
1626 1681
1626 1684
1626 1686
1626 1696
1626 1702
1626 1711
1626 1712
1626 1713
1626 1716
1626 1718
1626 1725
1626 1730
1626 1736
1626 1737
1626 1746
1626 1783
1626 1789
1626 1797
1626 1802
1626 1804
1626 1808
1626 1809
1626 1812
1626 1848
1626 1881
1626 1906
1626 1929
1626 1943
1626 1958
1626 1962
1626 1976
1626 1984
1626 1989
1626 1992
1626 1993
1627 1633
1627 1650
1627 1657
1627 1663
1627 1671
1627 1684
1627 1685
1627 1687
1627 1692
1627 1694
1627 1712
1627 1718
1627 1720
1627 1743
1627 1744
1627 1749
1627 1754
1627 1783
1627 1784
1627 1791
1627 1828
1627 1836
1627 1844
1627 1846
1627 1878
1627 1880
1627 1889
1627 1895
1627 1898
1627 1904
1627 1921
1627 1926
1627 1952
1627 1985
1627 1993
1628 1635
1628 1655
1628 1685
1628 1691
1628 1704
1628 1706
1628 1710
1628 1715
1628 1734
1628 1759
1628 1787
1628 1789
1628 1799
1628 1807
1628 1811
1628 1820
1628 1825
1628 1832
1628 1836
1628 1839
1628 1868
1628 1870
1628 1880
1628 1882
1628 1883
1628 1894
1628 1898
1628 1926
1628 1950
1628 1954
1628 1966
1628 1971
1628 1982
1628 1983
1629 1632
1629 1644
1629 1652
1629 1657
1629 1658
1629 1659
1629 1665
1629 1682
1629 1695
1629 1700
1629 1703
1629 1717
1629 1722
1629 1724
1629 1734
1629 1749
1629 1760
1629 1763
1629 1764
1629 1786
1629 1801
1629 1808
1629 1836
1629 1845
1629 1852
1629 1854
1629 1857
1629 1858
1629 1863
1629 1872
1629 1877
1629 1890
1629 1894
1629 1899
1629 1900
1629 1910
1629 1917
1629 1920
1629 1949
1629 1975
1629 1981
1629 1982
1629 1995
1629 1997
1630 1643
1630 1648
1630 1662
1630 1667
1630 1682
1630 1685
1630 1689
1630 1691
1630 1704
1630 1710
1630 1714
1630 1720
1630 1727
1630 1739
1630 1747
1630 1765
1630 1769
1630 1779
1630 1780
1630 1787
1630 1825
1630 1836
1630 1860
1630 1862
1630 1872
1630 1883
1630 1888
1630 1930
1630 1935
1630 1946
1630 1948
1630 1949
1630 1967
1630 1974
1630 1976
1630 1994
1630 1995
1631 1636
1631 1638
1631 1645
1631 1648
1631 1650
1631 1653
1631 1667
1631 1690
1631 1700
1631 1702
1631 1703
1631 1722
1631 1724
1631 1726
1631 1740
1631 1746
1631 1755
1631 1770
1631 1778
1631 1788
1631 1821
1631 1862
1631 1870
1631 1878
1631 1893
1631 1894
1631 1901
1631 1927
1631 1928
1631 1936
1631 1956
1632 1645
1632 1648
1632 1655
1632 1665
1632 1686
1632 1689
1632 1693
1632 1712
1632 1720
1632 1731
1632 1742
1632 1744
1632 1746
1632 1757
1632 1763
1632 1766
1632 1781
1632 1791
1632 1810
1632 1812
1632 1834
1632 1840
1632 1863
1632 1865
1632 1921
1632 1951
1632 1970
1632 1977
1632 1980
1632 1994
1632 1997
1633 1647
1633 1650
1633 1652
1633 1656
1633 1664
1633 1669
1633 1677
1633 1696
1633 1715
1633 1730
1633 1781
1633 1807
1633 1825
1633 1846
1633 1848
1633 1851
1633 1899
1633 1906
1633 1908
1633 1914
1633 1915
1633 1916
1633 1917
1633 1926
1633 1949
1633 1955
1633 1967
1633 1972
1633 1991
1633 1998
1634 1646
1634 1652
1634 1660
1634 1674
1634 1689
1634 1690
1634 1693
1634 1697
1634 1717
1634 1718
1634 1744
1634 1745
1634 1766
1634 1770
1634 1772
1634 1781
1634 1790
1634 1816
1634 1828
1634 1838
1634 1847
1634 1853
1634 1863
1634 1883
1634 1888
1634 1889
1634 1911
1634 1945
1634 1951
1634 1952
1634 1953
1634 1956
1634 1963
1634 1972
1634 1977
1634 1980
1634 1985
1634 1990
1634 1994
1635 1647
1635 1655
1635 1660
1635 1672
1635 1682
1635 1695
1635 1717
1635 1729
1635 1746
1635 1748
1635 1759
1635 1789
1635 1790
1635 1794
1635 1804
1635 1808
1635 1811
1635 1826
1635 1846
1635 1848
1635 1849
1635 1853
1635 1878
1635 1883
1635 1897
1635 1931
1635 1939
1635 1945
1635 1959
1635 1967
1635 1972
1635 1974
1635 1975
1635 1977
1635 1986
1636 1649
1636 1654
1636 1655
1636 1664
1636 1677
1636 1688
1636 1692
1636 1696
1636 1697
1636 1714
1636 1720
1636 1721
1636 1722
1636 1725
1636 1731
1636 1739
1636 1740
1636 1757
1636 1767
1636 1782
1636 1784
1636 1786
1636 1791
1636 1792
1636 1793
1636 1798
1636 1810
1636 1820
1636 1831
1636 1847
1636 1864
1636 1865
1636 1868
1636 1894
1636 1895
1636 1904
1636 1914
1636 1928
1636 1944
1636 1960
1636 1961
1636 1982
1636 1999
1637 1639
1637 1657
1637 1664
1637 1673
1637 1718
1637 1721
1637 1733
1637 1781
1637 1793
1637 1798
1637 1810
1637 1813
1637 1817
1637 1828
1637 1832
1637 1837
1637 1852
1637 1858
1637 1868
1637 1877
1637 1881
1637 1901
1637 1904
1637 1922
1637 1925
1637 1947
1637 1976
1637 1989
1637 1997
1638 1639
1638 1645
1638 1649
1638 1663
1638 1669
1638 1681
1638 1694
1638 1699
1638 1703
1638 1706
1638 1713
1638 1720
1638 1721
1638 1722
1638 1728
1638 1745
1638 1751
1638 1757
1638 1769
1638 1793
1638 1796
1638 1808
1638 1809
1638 1811
1638 1813
1638 1873
1638 1874
1638 1887
1638 1889
1638 1904
1638 1924
1638 1940
1638 1942
1638 1946
1638 1949
1638 1956
1638 1965
1638 1967
1638 1970
1638 1974
1638 1976
1638 1990
1639 1645
1639 1649
1639 1685
1639 1693
1639 1704
1639 1739
1639 1741
1639 1770
1639 1817
1639 1823
1639 1853
1639 1897
1639 1902
1639 1903
1639 1922
1639 1932
1639 1940
1639 1951
1639 1956
1639 1960
1639 1966
1639 1982
1640 1647
1640 1657
1640 1665
1640 1667
1640 1684
1640 1685
1640 1702
1640 1714
1640 1735
1640 1745
1640 1785
1640 1799
1640 1801
1640 1806
1640 1807
1640 1816
1640 1817
1640 1820
1640 1823
1640 1825
1640 1830
1640 1844
1640 1870
1640 1871
1640 1876
1640 1885
1640 1893
1640 1901
1640 1904
1640 1908
1640 1927
1640 1938
1640 1947
1640 1951
1640 1952
1640 1963
1640 1970
1640 1981
1640 1986
1640 1988
1641 1652
1641 1665
1641 1671
1641 1677
1641 1689
1641 1705
1641 1706
1641 1708
1641 1713
1641 1716
1641 1732
1641 1736
1641 1744
1641 1758
1641 1759
1641 1777
1641 1788
1641 1792
1641 1823
1641 1825
1641 1831
1641 1833
1641 1835
1641 1840
1641 1844
1641 1849
1641 1859
1641 1877
1641 1896
1641 1905
1641 1911
1641 1922
1641 1928
1641 1934
1641 1965
1641 1966
1641 1968
1641 1973
1641 1978
1642 1661
1642 1666
1642 1677
1642 1703
1642 1706
1642 1708
1642 1720
1642 1730
1642 1735
1642 1741
1642 1748
1642 1756
1642 1760
1642 1768
1642 1774
1642 1776
1642 1779
1642 1783
1642 1796
1642 1805
1642 1820
1642 1833
1642 1836
1642 1854
1642 1858
1642 1860
1642 1862
1642 1867
1642 1868
1642 1894
1642 1896
1642 1908
1642 1922
1642 1924
1642 1928
1642 1931
1642 1946
1642 1954
1642 1988
1643 1656
1643 1657
1643 1663
1643 1672
1643 1679
1643 1692
1643 1698
1643 1701
1643 1709
1643 1715
1643 1728
1643 1730
1643 1732
1643 1740
1643 1749
1643 1752
1643 1775
1643 1785
1643 1786
1643 1790
1643 1798
1643 1803
1643 1826
1643 1827
1643 1833
1643 1839
1643 1843
1643 1848
1643 1868
1643 1882
1643 1927
1643 1938
1643 1942
1643 1943
1643 1976
1643 1990
1643 1995
1644 1660
1644 1661
1644 1664
1644 1681
1644 1692
1644 1711
1644 1776
1644 1780
1644 1794
1644 1798
1644 1810
1644 1814
1644 1821
1644 1826
1644 1842
1644 1849
1644 1852
1644 1863
1644 1865
1644 1873
1644 1883
1644 1890
1644 1893
1644 1905
1644 1907
1644 1911
1644 1913
1644 1916
1644 1929
1644 1943
1644 1944
1644 1958
1644 1959
1644 1961
1644 1976
1645 1646
1645 1651
1645 1653
1645 1664
1645 1667
1645 1681
1645 1685
1645 1689
1645 1707
1645 1774
1645 1782
1645 1783
1645 1796
1645 1810
1645 1815
1645 1820
1645 1831
1645 1841
1645 1847
1645 1851
1645 1852
1645 1883
1645 1891
1645 1902
1645 1904
1645 1905
1645 1929
1645 1935
1645 1939
1645 1962
1645 1964
1645 1976
1645 1981
1645 1987
1646 1651
1646 1656
1646 1659
1646 1675
1646 1677
1646 1685
1646 1696
1646 1700
1646 1709
1646 1712
1646 1713
1646 1723
1646 1726
1646 1730
1646 1737
1646 1739
1646 1744
1646 1752
1646 1755
1646 1767
1646 1775
1646 1809
1646 1815
1646 1817
1646 1818
1646 1834
1646 1839
1646 1848
1646 1860
1646 1893
1646 1899
1646 1902
1646 1910
1646 1911
1646 1912
1646 1945
1646 1946
1646 1948
1646 1952
1646 1966
1646 1974
1646 1975
1646 1979
1646 1987
1647 1648
1647 1661
1647 1662
1647 1684
1647 1700
1647 1701
1647 1716
1647 1722
1647 1724
1647 1738
1647 1749
1647 1752
1647 1770
1647 1776
1647 1801
1647 1810
1647 1823
1647 1839
1647 1848
1647 1857
1647 1861
1647 1863
1647 1864
1647 1872
1647 1892
1647 1901
1647 1912
1647 1915
1647 1917
1647 1927
1647 1929
1647 1942
1647 1944
1647 1947
1647 1952
1647 1977
1647 1984
1647 1986
1648 1651
1648 1659
1648 1664
1648 1666
1648 1667
1648 1669
1648 1688
1648 1700
1648 1701
1648 1706
1648 1709
1648 1723
1648 1736
1648 1742
1648 1745
1648 1755
1648 1757
1648 1758
1648 1769
1648 1771
1648 1774
1648 1775
1648 1786
1648 1792
1648 1798
1648 1806
1648 1807
1648 1808
1648 1817
1648 1819
1648 1831
1648 1838
1648 1845
1648 1859
1648 1879
1648 1880
1648 1883
1648 1912
1648 1919
1648 1920
1648 1944
1648 1950
1648 1967
1648 1970
1648 1984
1649 1650
1649 1662
1649 1668
1649 1677
1649 1680
1649 1689
1649 1691
1649 1699
1649 1707
1649 1709
1649 1710
1649 1711
1649 1712
1649 1736
1649 1739
1649 1746
1649 1750
1649 1751
1649 1756
1649 1773
1649 1797
1649 1798
1649 1799
1649 1805
1649 1811
1649 1817
1649 1891
1649 1908
1649 1913
1649 1915
1649 1918
1649 1928
1649 1938
1649 1939
1649 1947
1649 1959
1649 1960
1649 1974
1649 1977
1649 1978
1649 1981
1649 1983
1649 1987
1649 1989
1650 1659
1650 1666
1650 1675
1650 1696
1650 1710
1650 1730
1650 1741
1650 1750
1650 1756
1650 1761
1650 1767
1650 1770
1650 1780
1650 1784
1650 1789
1650 1794
1650 1806
1650 1830
1650 1839
1650 1858
1650 1859
1650 1866
1650 1868
1650 1871
1650 1876
1650 1887
1650 1889
1650 1934
1650 1947
1650 1948
1650 1951
1650 1982
1650 1985
1651 1653
1651 1658
1651 1663
1651 1688
1651 1691
1651 1692
1651 1708
1651 1710
1651 1728
1651 1731
1651 1741
1651 1743
1651 1754
1651 1766
1651 1768
1651 1770
1651 1771
1651 1780
1651 1781
1651 1790
1651 1803
1651 1810
1651 1814
1651 1818
1651 1820
1651 1850
1651 1852
1651 1881
1651 1883
1651 1884
1651 1887
1651 1892
1651 1894
1651 1906
1651 1914
1651 1916
1651 1919
1651 1932
1651 1937
1651 1945
1651 1946
1651 1947
1651 1948
1651 1961
1651 1964
1651 1970
1651 1982
1651 1989
1651 1997
1652 1663
1652 1670
1652 1679
1652 1681
1652 1685
1652 1688
1652 1718
1652 1720
1652 1729
1652 1738
1652 1757
1652 1761
1652 1763
1652 1773
1652 1780
1652 1803
1652 1808
1652 1811
1652 1869
1652 1877
1652 1879
1652 1883
1652 1935
1652 1936
1652 1943
1652 1945
1652 1954
1652 1980
1653 1666
1653 1673
1653 1678
1653 1680
1653 1715
1653 1719
1653 1735
1653 1741
1653 1750
1653 1780
1653 1781
1653 1790
1653 1793
1653 1797
1653 1799
1653 1814
1653 1815
1653 1818
1653 1820
1653 1823
1653 1831
1653 1838
1653 1840
1653 1853
1653 1857
1653 1874
1653 1881
1653 1884
1653 1886
1653 1890
1653 1901
1653 1927
1653 1932
1653 1957
1653 1960
1653 1966
1653 1967
1653 1970
1653 1981
1653 1990
1653 1994
1654 1678
1654 1688
1654 1702
1654 1704
1654 1706
1654 1722
1654 1728
1654 1743
1654 1776
1654 1814
1654 1877
1654 1890
1654 1899
1654 1902
1654 1905
1654 1928
1654 1931
1654 1936
1654 1954
1654 1966
1654 1967
1654 1969
1654 1974
1654 1978
1654 1987
1654 1989
1655 1667
1655 1679
1655 1681
1655 1682
1655 1693
1655 1695
1655 1715
1655 1716
1655 1723
1655 1740
1655 1746
1655 1747
1655 1757
1655 1767
1655 1792
1655 1800
1655 1814
1655 1832
1655 1838
1655 1841
1655 1862
1655 1869
1655 1875
1655 1886
1655 1896
1655 1902
1655 1907
1655 1908
1655 1931
1655 1933
1655 1948
1655 1949
1655 1958
1655 1963
1655 1985
1655 1995
1656 1663
1656 1670
1656 1674
1656 1682
1656 1689
1656 1693
1656 1700
1656 1702
1656 1705
1656 1725
1656 1731
1656 1738
1656 1764
1656 1774
1656 1778
1656 1788
1656 1794
1656 1799
1656 1827
1656 1835
1656 1877
1656 1891
1656 1893
1656 1922
1656 1923
1656 1927
1656 1941
1656 1943
1656 1952
1656 1976
1656 1980
1656 1981
1656 1985
1657 1679
1657 1700
1657 1701
1657 1702
1657 1706
1657 1719
1657 1730
1657 1731
1657 1734
1657 1738
1657 1740
1657 1753
1657 1760
1657 1771
1657 1772
1657 1780
1657 1786
1657 1804
1657 1821
1657 1824
1657 1828
1657 1835
1657 1878
1657 1891
1657 1894
1657 1931
1657 1935
1657 1956
1657 1962
1657 1964
1657 1988
1657 1990
1657 1992
1657 1998
1658 1661
1658 1668
1658 1675
1658 1677
1658 1682
1658 1683
1658 1699
1658 1700
1658 1707
1658 1708
1658 1719
1658 1724
1658 1728
1658 1734
1658 1749
1658 1761
1658 1776
1658 1787
1658 1789
1658 1794
1658 1798
1658 1821
1658 1825
1658 1826
1658 1833
1658 1837
1658 1847
1658 1848
1658 1860
1658 1861
1658 1862
1658 1867
1658 1882
1658 1884
1658 1897
1658 1915
1658 1922
1658 1923
1658 1926
1658 1927
1658 1930
1658 1932
1658 1939
1658 1947
1658 1949
1658 1952
1658 1966
1658 1968
1659 1660
1659 1666
1659 1682
1659 1683
1659 1685
1659 1696
1659 1706
1659 1707
1659 1713
1659 1728
1659 1729
1659 1739
1659 1746
1659 1748
1659 1760
1659 1761
1659 1767
1659 1769
1659 1781
1659 1830
1659 1834
1659 1835
1659 1840
1659 1843
1659 1851
1659 1856
1659 1870
1659 1872
1659 1877
1659 1906
1659 1909
1659 1918
1659 1928
1659 1941
1659 1974
1659 1993
1660 1704
1660 1716
1660 1723
1660 1725
1660 1732
1660 1736
1660 1747
1660 1770
1660 1801
1660 1802
1660 1806
1660 1823
1660 1825
1660 1833
1660 1856
1660 1859
1660 1867
1660 1870
1660 1874
1660 1881
1660 1890
1660 1892
1660 1906
1660 1912
1660 1913
1660 1920
1660 1925
1660 1931
1660 1943
1660 1954
1660 1955
1660 1958
1660 1971
1660 1977
1660 1979
1660 1985
1660 1989
1660 1996
1661 1682
1661 1702
1661 1706
1661 1710
1661 1722
1661 1728
1661 1740
1661 1750
1661 1755
1661 1758
1661 1773
1661 1786
1661 1799
1661 1806
1661 1812
1661 1814
1661 1820
1661 1826
1661 1828
1661 1834
1661 1842
1661 1847
1661 1855
1661 1868
1661 1873
1661 1879
1661 1891
1661 1900
1661 1902
1661 1907
1661 1910
1661 1911
1661 1914
1661 1938
1661 1945
1661 1948
1661 1949
1661 1976
1661 1983
1661 1985
1661 1997
1662 1670
1662 1674
1662 1681
1662 1713
1662 1717
1662 1732
1662 1743
1662 1754
1662 1785
1662 1787
1662 1823
1662 1848
1662 1849
1662 1857
1662 1860
1662 1869
1662 1887
1662 1898
1662 1899
1662 1913
1662 1916
1662 1928
1662 1937
1662 1942
1662 1955
1662 1982
1662 1983
1662 1995
1663 1671
1663 1677
1663 1708
1663 1716
1663 1735
1663 1740
1663 1756
1663 1780
1663 1793
1663 1800
1663 1807
1663 1822
1663 1849
1663 1858
1663 1859
1663 1863
1663 1865
1663 1873
1663 1880
1663 1892
1663 1893
1663 1894
1663 1896
1663 1898
1663 1908
1663 1915
1663 1937
1663 1939
1663 1940
1663 1949
1663 1977
1663 1999
1664 1679
1664 1691
1664 1704
1664 1713
1664 1730
1664 1734
1664 1740
1664 1743
1664 1766
1664 1780
1664 1784
1664 1795
1664 1806
1664 1822
1664 1845
1664 1858
1664 1871
1664 1876
1664 1889
1664 1892
1664 1897
1664 1901
1664 1909
1664 1916
1664 1921
1664 1944
1664 1947
1664 1948
1664 1952
1664 1958
1664 1959
1664 1962
1664 1969
1664 1978
1665 1676
1665 1679
1665 1680
1665 1694
1665 1696
1665 1715
1665 1716
1665 1731
1665 1755
1665 1778
1665 1788
1665 1793
1665 1803
1665 1804
1665 1824
1665 1832
1665 1835
1665 1837
1665 1849
1665 1865
1665 1889
1665 1891
1665 1904
1665 1920
1665 1932
1665 1933
1665 1935
1665 1938
1665 1941
1665 1957
1665 1960
1666 1672
1666 1673
1666 1681
1666 1689
1666 1695
1666 1700
1666 1733
1666 1736
1666 1751
1666 1753
1666 1758
1666 1767
1666 1771
1666 1776
1666 1793
1666 1800
1666 1804
1666 1806
1666 1826
1666 1831
1666 1841
1666 1846
1666 1847
1666 1880
1666 1893
1666 1896
1666 1898
1666 1912
1666 1913
1666 1936
1666 1954
1666 1963
1666 1974
1666 1976
1666 1982
1667 1672
1667 1675
1667 1681
1667 1683
1667 1685
1667 1689
1667 1690
1667 1709
1667 1712
1667 1716
1667 1745
1667 1749
1667 1771
1667 1773
1667 1778
1667 1785
1667 1803
1667 1838
1667 1842
1667 1844
1667 1845
1667 1880
1667 1884
1667 1886
1667 1894
1667 1905
1667 1906
1667 1915
1667 1923
1667 1924
1667 1939
1667 1972
1667 1978
1667 1987
1667 1989
1667 1995
1668 1723
1668 1724
1668 1725
1668 1731
1668 1751
1668 1759
1668 1764
1668 1765
1668 1768
1668 1788
1668 1798
1668 1801
1668 1808
1668 1810
1668 1813
1668 1823
1668 1831
1668 1832
1668 1834
1668 1868
1668 1934
1668 1935
1668 1936
1668 1945
1668 1962
1668 1974
1668 1987
1668 1990
1668 1997
1668 1999
1669 1673
1669 1679
1669 1684
1669 1692
1669 1699
1669 1708
1669 1716
1669 1729
1669 1740
1669 1747
1669 1764
1669 1781
1669 1806
1669 1809
1669 1811
1669 1838
1669 1839
1669 1841
1669 1842
1669 1851
1669 1860
1669 1880
1669 1905
1669 1911
1669 1917
1669 1962
1669 1966
1669 1975
1670 1680
1670 1696
1670 1698
1670 1726
1670 1729
1670 1743
1670 1759
1670 1772
1670 1782
1670 1783
1670 1790
1670 1803
1670 1809
1670 1811
1670 1813
1670 1815
1670 1816
1670 1817
1670 1854
1670 1855
1670 1862
1670 1865
1670 1873
1670 1874
1670 1878
1670 1881
1670 1889
1670 1890
1670 1896
1670 1900
1670 1904
1670 1905
1670 1912
1670 1914
1670 1916
1670 1935
1670 1939
1670 1976
1670 1982
1670 1992
1671 1679
1671 1686
1671 1688
1671 1700
1671 1704
1671 1709
1671 1720
1671 1730
1671 1737
1671 1751
1671 1753
1671 1760
1671 1761
1671 1767
1671 1773
1671 1775
1671 1798
1671 1800
1671 1802
1671 1813
1671 1814
1671 1819
1671 1822
1671 1832
1671 1843
1671 1851
1671 1859
1671 1865
1671 1898
1671 1905
1671 1913
1671 1948
1671 1951
1671 1956
1671 1968
1671 1981
1671 1985
1671 1991
1672 1676
1672 1685
1672 1691
1672 1692
1672 1695
1672 1696
1672 1697
1672 1703
1672 1709
1672 1723
1672 1726
1672 1760
1672 1767
1672 1768
1672 1794
1672 1796
1672 1802
1672 1808
1672 1841
1672 1842
1672 1848
1672 1849
1672 1864
1672 1881
1672 1889
1672 1891
1672 1913
1672 1916
1672 1918
1672 1921
1672 1922
1672 1928
1672 1945
1672 1954
1672 1959
1672 1965
1672 1997
1673 1703
1673 1711
1673 1716
1673 1719
1673 1727
1673 1742
1673 1754
1673 1756
1673 1765
1673 1766
1673 1777
1673 1819
1673 1830
1673 1833
1673 1835
1673 1844
1673 1849
1673 1853
1673 1869
1673 1876
1673 1880
1673 1887
1673 1890
1673 1900
1673 1915
1673 1927
1673 1945
1673 1957
1673 1960
1673 1961
1673 1994
1674 1678
1674 1709
1674 1729
1674 1731
1674 1734
1674 1736
1674 1754
1674 1776
1674 1789
1674 1810
1674 1837
1674 1889
1674 1892
1674 1914
1674 1915
1674 1924
1674 1929
1674 1939
1674 1943
1674 1947
1674 1962
1674 1974
1674 1996
1675 1694
1675 1696
1675 1699
1675 1709
1675 1710
1675 1711
1675 1734
1675 1735
1675 1739
1675 1743
1675 1745
1675 1750
1675 1759
1675 1769
1675 1771
1675 1783
1675 1793
1675 1795
1675 1814
1675 1863
1675 1865
1675 1881
1675 1899
1675 1904
1675 1908
1675 1923
1675 1939
1675 1944
1675 1969
1675 1970
1675 1975
1675 1984
1675 1993
1675 1996
1676 1682
1676 1688
1676 1707
1676 1711
1676 1725
1676 1726
1676 1749
1676 1761
1676 1770
1676 1777
1676 1779
1676 1789
1676 1790
1676 1796
1676 1805
1676 1823
1676 1840
1676 1842
1676 1844
1676 1848
1676 1852
1676 1868
1676 1872
1676 1879
1676 1889
1676 1906
1676 1916
1676 1946
1676 1947
1676 1958
1676 1966
1676 1969
1676 1981
1676 1982
1676 1983
1676 1993
1677 1701
1677 1703
1677 1714
1677 1742
1677 1748
1677 1761
1677 1763
1677 1775
1677 1788
1677 1818
1677 1825
1677 1841
1677 1857
1677 1865
1677 1866
1677 1867
1677 1885
1677 1897
1677 1898
1677 1901
1677 1902
1677 1905
1677 1908
1677 1929
1677 1933
1677 1949
1677 1961
1677 1969
1677 1981
1677 1989
1678 1703
1678 1704
1678 1706
1678 1707
1678 1713
1678 1720
1678 1727
1678 1748
1678 1753
1678 1757
1678 1769
1678 1788
1678 1791
1678 1805
1678 1816
1678 1857
1678 1897
1678 1902
1678 1904
1678 1906
1678 1918
1678 1922
1678 1932
1678 1946
1678 1957
1678 1960
1678 1973
1678 1974
1678 1991
1679 1708
1679 1715
1679 1726
1679 1729
1679 1732
1679 1763
1679 1767
1679 1770
1679 1783
1679 1788
1679 1804
1679 1813
1679 1857
1679 1874
1679 1881
1679 1882
1679 1897
1679 1900
1679 1931
1679 1947
1679 1970
1679 1978
1679 1992
1679 1996
1679 1998
1680 1683
1680 1689
1680 1691
1680 1730
1680 1734
1680 1746
1680 1752
1680 1755
1680 1771
1680 1776
1680 1778
1680 1788
1680 1792
1680 1798
1680 1802
1680 1804
1680 1805
1680 1809
1680 1811
1680 1813
1680 1814
1680 1831
1680 1849
1680 1851
1680 1859
1680 1860
1680 1869
1680 1870
1680 1876
1680 1885
1680 1887
1680 1893
1680 1899
1680 1900
1680 1902
1680 1903
1680 1904
1680 1909
1680 1912
1680 1915
1680 1927
1680 1939
1680 1951
1680 1975
1681 1689
1681 1690
1681 1694
1681 1698
1681 1709
1681 1715
1681 1726
1681 1736
1681 1764
1681 1765
1681 1768
1681 1769
1681 1780
1681 1810
1681 1828
1681 1843
1681 1851
1681 1852
1681 1869
1681 1884
1681 1889
1681 1898
1681 1901
1681 1917
1681 1929
1681 1953
1681 1956
1681 1958
1681 1960
1681 1982
1681 1985
1681 1990
1682 1717
1682 1745
1682 1755
1682 1769
1682 1777
1682 1778
1682 1784
1682 1785
1682 1794
1682 1802
1682 1820
1682 1835
1682 1842
1682 1849
1682 1851
1682 1864
1682 1865
1682 1873
1682 1876
1682 1912
1682 1916
1682 1930
1682 1962
1682 1976
1682 1978
1682 1989
1683 1688
1683 1694
1683 1695
1683 1697
1683 1704
1683 1707
1683 1716
1683 1763
1683 1767
1683 1782
1683 1784
1683 1804
1683 1811
1683 1818
1683 1831
1683 1835
1683 1839
1683 1841
1683 1850
1683 1855
1683 1864
1683 1865
1683 1873
1683 1880
1683 1885
1683 1887
1683 1895
1683 1904
1683 1906
1683 1917
1683 1920
1683 1922
1683 1935
1683 1943
1683 1951
1683 1962
1683 1968
1683 1976
1683 1977
1684 1685
1684 1688
1684 1714
1684 1726
1684 1745
1684 1798
1684 1801
1684 1805
1684 1812
1684 1815
1684 1819
1684 1822
1684 1823
1684 1831
1684 1835
1684 1849
1684 1887
1684 1905
1684 1908
1684 1935
1684 1950
1684 1965
1684 1983
1684 1993
1685 1689
1685 1709
1685 1710
1685 1722
1685 1730
1685 1752
1685 1753
1685 1766
1685 1772
1685 1773
1685 1780
1685 1795
1685 1831
1685 1840
1685 1844
1685 1859
1685 1869
1685 1871
1685 1900
1685 1917
1685 1920
1685 1926
1685 1939
1685 1962
1685 1965
1685 1982
1685 1985
1685 1987
1685 1994
1686 1692
1686 1697
1686 1713
1686 1716
1686 1717
1686 1727
1686 1747
1686 1748
1686 1755
1686 1760
1686 1768
1686 1772
1686 1781
1686 1787
1686 1792
1686 1800
1686 1809
1686 1824
1686 1838
1686 1850
1686 1859
1686 1862
1686 1873
1686 1876
1686 1877
1686 1879
1686 1883
1686 1892
1686 1919
1686 1931
1686 1933
1686 1945
1686 1970
1686 1990
1687 1690
1687 1691
1687 1692
1687 1699
1687 1701
1687 1702
1687 1716
1687 1721
1687 1722
1687 1734
1687 1735
1687 1745
1687 1751
1687 1774
1687 1776
1687 1778
1687 1794
1687 1798
1687 1806
1687 1813
1687 1824
1687 1826
1687 1838
1687 1868
1687 1895
1687 1936
1687 1949
1687 1953
1687 1959
1687 1961
1687 1966
1687 1994
1688 1701
1688 1703
1688 1734
1688 1749
1688 1762
1688 1780
1688 1784
1688 1793
1688 1808
1688 1831
1688 1875
1688 1878
1688 1883
1688 1887
1688 1891
1688 1914
1688 1918
1688 1920
1688 1924
1688 1941
1688 1942
1688 1948
1688 1974
1689 1705
1689 1709
1689 1722
1689 1725
1689 1732
1689 1739
1689 1746
1689 1761
1689 1766
1689 1767
1689 1798
1689 1799
1689 1800
1689 1801
1689 1804
1689 1851
1689 1852
1689 1873
1689 1874
1689 1879
1689 1880
1689 1890
1689 1892
1689 1900
1689 1902
1689 1931
1689 1932
1689 1949
1689 1959
1689 1962
1689 1964
1689 1967
1689 1988
1690 1711
1690 1713
1690 1738
1690 1743
1690 1748
1690 1768
1690 1775
1690 1776
1690 1793
1690 1814
1690 1818
1690 1826
1690 1843
1690 1850
1690 1871
1690 1876
1690 1886
1690 1919
1690 1922
1690 1925
1690 1931
1690 1937
1690 1938
1690 1960
1690 1968
1690 1978
1690 1991
1690 1999
1691 1693
1691 1694
1691 1706
1691 1710
1691 1734
1691 1760
1691 1764
1691 1767
1691 1782
1691 1791
1691 1793
1691 1800
1691 1801
1691 1807
1691 1815
1691 1855
1691 1863
1691 1871
1691 1883
1691 1904
1691 1910
1691 1911
1691 1940
1691 1967
1691 1973
1691 1974
1691 1989
1692 1695
1692 1699
1692 1706
1692 1737
1692 1750
1692 1758
1692 1763
1692 1797
1692 1817
1692 1828
1692 1833
1692 1843
1692 1844
1692 1846
1692 1853
1692 1854
1692 1863
1692 1867
1692 1871
1692 1872
1692 1885
1692 1897
1692 1906
1692 1921
1692 1928
1692 1957
1692 1965
1692 1967
1692 1969
1692 1979
1692 1986
1692 1988
1693 1702
1693 1711
1693 1714
1693 1736
1693 1743
1693 1746
1693 1751
1693 1776
1693 1779
1693 1792
1693 1802
1693 1808
1693 1816
1693 1818
1693 1819
1693 1820
1693 1821
1693 1831
1693 1855
1693 1861
1693 1868
1693 1875
1693 1891
1693 1907
1693 1919
1693 1927
1693 1957
1693 1973
1693 1979
1693 1980
1693 1989
1693 1990
1693 1994
1694 1701
1694 1704
1694 1708
1694 1710
1694 1727
1694 1729
1694 1734
1694 1737
1694 1743
1694 1752
1694 1756
1694 1772
1694 1783
1694 1791
1694 1806
1694 1811
1694 1814
1694 1822
1694 1831
1694 1836
1694 1856
1694 1874
1694 1880
1694 1885
1694 1895
1694 1904
1694 1925
1694 1948
1694 1949
1694 1972
1694 1974
1694 1990
1695 1718
1695 1720
1695 1721
1695 1726
1695 1739
1695 1741
1695 1751
1695 1758
1695 1759
1695 1764
1695 1768
1695 1811
1695 1814
1695 1815
1695 1818
1695 1832
1695 1844
1695 1853
1695 1858
1695 1863
1695 1870
1695 1877
1695 1886
1695 1927
1695 1937
1695 1961
1695 1986
1695 1990
1696 1698
1696 1725
1696 1730
1696 1733
1696 1740
1696 1743
1696 1752
1696 1758
1696 1760
1696 1785
1696 1788
1696 1792
1696 1798
1696 1815
1696 1850
1696 1851
1696 1858
1696 1875
1696 1882
1696 1890
1696 1891
1696 1892
1696 1897
1696 1907
1696 1915
1696 1928
1696 1931
1696 1946
1696 1947
1696 1951
1696 1978
1696 1993
1696 1999
1697 1713
1697 1714
1697 1722
1697 1729
1697 1731
1697 1736
1697 1742
1697 1743
1697 1753
1697 1760
1697 1764
1697 1765
1697 1789
1697 1791
1697 1813
1697 1817
1697 1819
1697 1864
1697 1866
1697 1876
1697 1941
1697 1951
1697 1954
1697 1966
1697 1983
1697 1994
1697 1997
1697 1999
1698 1724
1698 1733
1698 1738
1698 1742
1698 1743
1698 1752
1698 1753
1698 1767
1698 1774
1698 1776
1698 1791
1698 1800
1698 1821
1698 1822
1698 1830
1698 1834
1698 1838
1698 1860
1698 1874
1698 1877
1698 1879
1698 1889
1698 1897
1698 1898
1698 1902
1698 1922
1698 1924
1698 1936
1698 1941
1698 1945
1698 1960
1698 1964
1698 1986
1698 1987
1699 1705
1699 1706
1699 1708
1699 1711
1699 1716
1699 1723
1699 1730
1699 1749
1699 1754
1699 1761
1699 1763
1699 1774
1699 1780
1699 1782
1699 1787
1699 1811
1699 1816
1699 1821
1699 1822
1699 1828
1699 1831
1699 1846
1699 1850
1699 1855
1699 1857
1699 1880
1699 1886
1699 1898
1699 1914
1699 1916
1699 1931
1699 1945
1699 1949
1699 1953
1699 1961
1699 1975
1699 1977
1699 1978
1699 1987
1699 1992
1699 1993
1700 1720
1700 1733
1700 1741
1700 1749
1700 1755
1700 1758
1700 1765
1700 1773
1700 1793
1700 1798
1700 1799
1700 1811
1700 1821
1700 1829
1700 1847
1700 1849
1700 1869
1700 1874
1700 1891
1700 1900
1700 1909
1700 1937
1700 1942
1700 1957
1700 1958
1700 1960
1700 1963
1700 1964
1700 1975
1700 1976
1700 1978
1700 1984
1700 1991
1701 1729
1701 1730
1701 1736
1701 1739
1701 1743
1701 1745
1701 1751
1701 1758
1701 1764
1701 1765
1701 1767
1701 1790
1701 1798
1701 1806
1701 1832
1701 1835
1701 1850
1701 1857
1701 1864
1701 1865
1701 1873
1701 1884
1701 1894
1701 1903
1701 1904
1701 1912
1701 1932
1701 1934
1701 1950
1701 1957
1701 1972
1701 1980
1701 1984
1701 1993
1701 1995
1702 1714
1702 1717
1702 1748
1702 1751
1702 1752
1702 1754
1702 1757
1702 1761
1702 1775
1702 1782
1702 1784
1702 1791
1702 1793
1702 1794
1702 1810
1702 1813
1702 1826
1702 1831
1702 1832
1702 1837
1702 1839
1702 1877
1702 1884
1702 1893
1702 1906
1702 1922
1702 1935
1702 1948
1702 1958
1702 1975
1703 1710
1703 1719
1703 1736
1703 1745
1703 1761
1703 1767
1703 1774
1703 1787
1703 1794
1703 1796
1703 1821
1703 1831
1703 1850
1703 1890
1703 1894
1703 1901
1703 1906
1703 1910
1703 1914
1703 1915
1703 1916
1703 1932
1703 1950
1703 1952
1703 1957
1703 1962
1703 1965
1703 1972
1703 1977
1703 1984
1703 1991
1704 1715
1704 1718
1704 1725
1704 1728
1704 1751
1704 1758
1704 1769
1704 1774
1704 1777
1704 1787
1704 1805
1704 1814
1704 1822
1704 1832
1704 1843
1704 1880
1704 1890
1704 1893
1704 1900
1704 1902
1704 1925
1704 1946
1704 1955
1704 1966
1704 1984
1705 1713
1705 1726
1705 1731
1705 1743
1705 1747
1705 1755
1705 1756
1705 1777
1705 1780
1705 1783
1705 1786
1705 1790
1705 1792
1705 1816
1705 1825
1705 1826
1705 1834
1705 1836
1705 1848
1705 1854
1705 1855
1705 1866
1705 1872
1705 1908
1705 1914
1705 1920
1705 1936
1705 1941
1705 1945
1705 1949
1705 1961
1705 1971
1705 1990
1706 1715
1706 1725
1706 1730
1706 1735
1706 1738
1706 1744
1706 1750
1706 1756
1706 1757
1706 1760
1706 1763
1706 1771
1706 1784
1706 1794
1706 1809
1706 1817
1706 1819
1706 1829
1706 1834
1706 1857
1706 1864
1706 1867
1706 1878
1706 1879
1706 1888
1706 1898
1706 1918
1706 1932
1706 1940
1706 1950
1706 1957
1706 1962
1706 1968
1706 1984
1706 1997
1706 1998
1707 1714
1707 1718
1707 1726
1707 1767
1707 1781
1707 1785
1707 1792
1707 1801
1707 1827
1707 1865
1707 1871
1707 1873
1707 1891
1707 1895
1707 1896
1707 1909
1707 1938
1707 1948
1707 1960
1707 1963
1707 1970
1707 1972
1707 1989
1708 1710
1708 1711
1708 1727
1708 1728
1708 1749
1708 1756
1708 1761
1708 1776
1708 1782
1708 1805
1708 1816
1708 1821
1708 1826
1708 1837
1708 1843
1708 1846
1708 1848
1708 1861
1708 1863
1708 1868
1708 1880
1708 1881
1708 1890
1708 1891
1708 1894
1708 1899
1708 1903
1708 1912
1708 1923
1708 1926
1708 1943
1708 1947
1708 1956
1708 1958
1708 1975
1708 1983
1708 1992
1708 1993
1709 1725
1709 1728
1709 1731
1709 1753
1709 1764
1709 1779
1709 1781
1709 1790
1709 1809
1709 1831
1709 1836
1709 1840
1709 1844
1709 1861
1709 1863
1709 1879
1709 1880
1709 1885
1709 1890
1709 1908
1709 1909
1709 1917
1709 1921
1709 1923
1709 1972
1709 1973
1709 1979
1710 1711
1710 1721
1710 1722
1710 1727
1710 1749
1710 1756
1710 1763
1710 1770
1710 1772
1710 1775
1710 1776
1710 1783
1710 1806
1710 1830
1710 1850
1710 1859
1710 1866
1710 1869
1710 1881
1710 1894
1710 1900
1710 1901
1710 1903
1710 1906
1710 1929
1710 1936
1710 1949
1710 1976
1710 1999
1711 1714
1711 1731
1711 1734
1711 1735
1711 1760
1711 1797
1711 1810
1711 1811
1711 1825
1711 1836
1711 1842
1711 1850
1711 1852
1711 1876
1711 1880
1711 1881
1711 1887
1711 1891
1711 1909
1711 1910
1711 1911
1711 1915
1711 1918
1711 1919
1711 1923
1711 1948
1711 1952
1711 1961
1711 1970
1711 1982
1711 1988
1711 1989
1712 1715
1712 1728
1712 1729
1712 1732
1712 1738
1712 1741
1712 1747
1712 1749
1712 1756
1712 1770
1712 1776
1712 1783
1712 1784
1712 1786
1712 1789
1712 1792
1712 1796
1712 1802
1712 1817
1712 1824
1712 1829
1712 1848
1712 1856
1712 1858
1712 1868
1712 1878
1712 1889
1712 1891
1712 1894
1712 1912
1712 1913
1712 1918
1712 1922
1712 1925
1712 1930
1712 1931
1712 1932
1712 1933
1712 1934
1712 1943
1712 1944
1713 1721
1713 1725
1713 1745
1713 1755
1713 1780
1713 1797
1713 1829
1713 1830
1713 1832
1713 1846
1713 1850
1713 1852
1713 1856
1713 1867
1713 1881
1713 1882
1713 1885
1713 1914
1713 1933
1713 1940
1713 1941
1713 1945
1713 1947
1713 1951
1713 1998
1714 1715
1714 1749
1714 1761
1714 1762
1714 1763
1714 1772
1714 1776
1714 1778
1714 1782
1714 1785
1714 1793
1714 1794
1714 1802
1714 1803
1714 1807
1714 1809
1714 1816
1714 1824
1714 1827
1714 1857
1714 1878
1714 1880
1714 1885
1714 1904
1714 1916
1714 1927
1714 1932
1714 1941
1714 1943
1714 1949
1714 1952
1714 1956
1714 1980
1715 1749
1715 1761
1715 1762
1715 1785
1715 1788
1715 1790
1715 1799
1715 1808
1715 1809
1715 1814
1715 1826
1715 1830
1715 1832
1715 1833
1715 1838
1715 1850
1715 1853
1715 1865
1715 1871
1715 1872
1715 1902
1715 1907
1715 1911
1715 1917
1715 1931
1715 1932
1715 1938
1715 1963
1715 1979
1716 1725
1716 1732
1716 1739
1716 1741
1716 1744
1716 1756
1716 1771
1716 1782
1716 1785
1716 1790
1716 1798
1716 1806
1716 1824
1716 1833
1716 1835
1716 1843
1716 1844
1716 1847
1716 1858
1716 1860
1716 1864
1716 1866
1716 1867
1716 1886
1716 1887
1716 1898
1716 1920
1716 1921
1716 1932
1716 1941
1716 1952
1716 1963
1716 1972
1716 1977
1716 1978
1716 1986
1716 1992
1716 1993
1717 1721
1717 1724
1717 1727
1717 1746
1717 1748
1717 1752
1717 1765
1717 1768
1717 1803
1717 1806
1717 1809
1717 1816
1717 1829
1717 1836
1717 1849
1717 1852
1717 1861
1717 1867
1717 1868
1717 1897
1717 1898
1717 1907
1717 1908
1717 1914
1717 1928
1717 1930
1717 1936
1717 1951
1717 1958
1717 1962
1717 1982
1717 1988
1717 1999
1718 1730
1718 1747
1718 1749
1718 1765
1718 1776
1718 1780
1718 1784
1718 1804
1718 1843
1718 1844
1718 1847
1718 1857
1718 1863
1718 1866
1718 1870
1718 1889
1718 1899
1718 1909
1718 1914
1718 1919
1718 1927
1718 1935
1718 1941
1718 1956
1718 1966
1718 1972
1718 1979
1719 1730
1719 1735
1719 1742
1719 1755
1719 1764
1719 1779
1719 1785
1719 1786
1719 1809
1719 1814
1719 1852
1719 1859
1719 1888
1719 1891
1719 1895
1719 1932
1719 1946
1719 1949
1719 1951
1719 1968
1719 1969
1719 1970
1719 1974
1719 1975
1720 1726
1720 1740
1720 1743
1720 1746
1720 1747
1720 1749
1720 1763
1720 1783
1720 1798
1720 1799
1720 1801
1720 1804
1720 1815
1720 1820
1720 1857
1720 1865
1720 1868
1720 1870
1720 1896
1720 1906
1720 1916
1720 1919
1720 1935
1720 1945
1720 1973
1720 1981
1720 1997
1720 1998
1721 1725
1721 1742
1721 1746
1721 1771
1721 1788
1721 1790
1721 1803
1721 1809
1721 1813
1721 1814
1721 1829
1721 1833
1721 1855
1721 1856
1721 1867
1721 1870
1721 1895
1721 1906
1721 1910
1721 1914
1721 1932
1721 1941
1721 1944
1721 1945
1721 1975
1721 1976
1721 1979
1721 1981
1721 1998
1722 1729
1722 1733
1722 1747
1722 1750
1722 1807
1722 1838
1722 1843
1722 1857
1722 1858
1722 1867
1722 1868
1722 1877
1722 1878
1722 1880
1722 1901
1722 1920
1722 1923
1722 1929
1722 1935
1722 1941
1722 1942
1722 1943
1722 1947
1722 1949
1722 1955
1722 1972
1722 1973
1722 1974
1722 1985
1722 1990
1722 1994
1723 1732
1723 1756
1723 1764
1723 1787
1723 1800
1723 1802
1723 1808
1723 1825
1723 1833
1723 1840
1723 1846
1723 1861
1723 1869
1723 1872
1723 1876
1723 1889
1723 1893
1723 1894
1723 1896
1723 1950
1723 1953
1723 1960
1723 1963
1723 1964
1723 1967
1723 1970
1723 1996
1724 1736
1724 1740
1724 1747
1724 1754
1724 1762
1724 1774
1724 1780
1724 1798
1724 1799
1724 1806
1724 1813
1724 1825
1724 1826
1724 1827
1724 1829
1724 1843
1724 1860
1724 1868
1724 1876
1724 1879
1724 1886
1724 1898
1724 1922
1724 1933
1724 1945
1724 1952
1724 1958
1724 1966
1724 1972
1724 1978
1724 1987
1725 1743
1725 1751
1725 1755
1725 1780
1725 1795
1725 1812
1725 1820
1725 1822
1725 1842
1725 1843
1725 1853
1725 1870
1725 1885
1725 1887
1725 1906
1725 1917
1725 1921
1725 1949
1725 1956
1725 1962
1726 1732
1726 1741
1726 1759
1726 1786
1726 1802
1726 1810
1726 1821
1726 1830
1726 1855
1726 1856
1726 1862
1726 1869
1726 1883
1726 1885
1726 1900
1726 1914
1726 1922
1726 1929
1727 1742
1727 1759
1727 1765
1727 1768
1727 1781
1727 1794
1727 1801
1727 1806
1727 1840
1727 1860
1727 1883
1727 1884
1727 1909
1727 1913
1727 1922
1727 1931
1727 1939
1727 1949
1727 1958
1727 1960
1727 1978
1728 1745
1728 1746
1728 1755
1728 1757
1728 1790
1728 1791
1728 1793
1728 1796
1728 1799
1728 1836
1728 1844
1728 1845
1728 1854
1728 1861
1728 1877
1728 1884
1728 1894
1728 1899
1728 1902
1728 1953
1728 1964
1728 1971
1728 1972
1728 1973
1728 1987
1728 1994
1729 1732
1729 1735
1729 1743
1729 1763
1729 1782
1729 1798
1729 1799
1729 1801
1729 1812
1729 1813
1729 1814
1729 1825
1729 1850
1729 1869
1729 1872
1729 1913
1729 1930
1729 1941
1729 1944
1729 1945
1729 1953
1729 1960
1729 1964
1729 1965
1729 1969
1729 1971
1729 1980
1729 1982
1730 1734
1730 1735
1730 1739
1730 1750
1730 1754
1730 1755
1730 1762
1730 1764
1730 1789
1730 1791
1730 1805
1730 1808
1730 1834
1730 1854
1730 1865
1730 1871
1730 1885
1730 1890
1730 1892
1730 1910
1730 1913
1730 1942
1730 1959
1731 1733
1731 1735
1731 1753
1731 1761
1731 1765
1731 1770
1731 1781
1731 1786
1731 1797
1731 1809
1731 1810
1731 1824
1731 1827
1731 1830
1731 1832
1731 1835
1731 1841
1731 1844
1731 1852
1731 1855
1731 1859
1731 1860
1731 1869
1731 1878
1731 1882
1731 1884
1731 1902
1731 1912
1731 1914
1731 1929
1731 1931
1731 1943
1731 1951
1731 1964
1731 1976
1731 1986
1732 1735
1732 1736
1732 1737
1732 1738
1732 1743
1732 1760
1732 1766
1732 1799
1732 1801
1732 1806
1732 1817
1732 1839
1732 1861
1732 1890
1732 1894
1732 1897
1732 1925
1732 1927
1732 1960
1732 1976
1733 1741
1733 1750
1733 1752
1733 1760
1733 1771
1733 1775
1733 1778
1733 1784
1733 1808
1733 1810
1733 1812
1733 1815
1733 1818
1733 1829
1733 1830
1733 1841
1733 1844
1733 1852
1733 1854
1733 1858
1733 1863
1733 1869
1733 1874
1733 1876
1733 1880
1733 1894
1733 1914
1733 1922
1733 1952
1733 1960
1733 1970
1734 1740
1734 1751
1734 1761
1734 1762
1734 1775
1734 1817
1734 1852
1734 1874
1734 1882
1734 1891
1734 1903
1734 1905
1734 1934
1734 1945
1734 1947
1734 1959
1734 1973
1734 1984
1735 1737
1735 1749
1735 1750
1735 1762
1735 1763
1735 1766
1735 1780
1735 1788
1735 1792
1735 1798
1735 1799
1735 1810
1735 1833
1735 1836
1735 1844
1735 1865
1735 1866
1735 1909
1735 1960
1735 1973
1735 1976
1735 1978
1735 1979
1735 1989
1735 1992
1736 1738
1736 1755
1736 1762
1736 1786
1736 1790
1736 1810
1736 1818
1736 1821
1736 1824
1736 1825
1736 1826
1736 1855
1736 1869
1736 1874
1736 1879
1736 1913
1736 1917
1736 1923
1736 1943
1736 1945
1736 1955
1736 1958
1736 1997
1736 1999
1737 1782
1737 1798
1737 1801
1737 1809
1737 1812
1737 1834
1737 1838
1737 1843
1737 1853
1737 1858
1737 1877
1737 1885
1737 1887
1737 1895
1737 1910
1737 1915
1737 1920
1737 1921
1737 1923
1737 1924
1737 1974
1737 1991
1738 1753
1738 1762
1738 1770
1738 1782
1738 1798
1738 1800
1738 1805
1738 1808
1738 1839
1738 1846
1738 1852
1738 1860
1738 1873
1738 1875
1738 1888
1738 1892
1738 1896
1738 1899
1738 1920
1738 1926
1738 1937
1738 1941
1738 1948
1738 1950
1738 1956
1738 1957
1738 1963
1738 1997
1739 1747
1739 1750
1739 1751
1739 1760
1739 1767
1739 1794
1739 1797
1739 1798
1739 1811
1739 1815
1739 1822
1739 1825
1739 1829
1739 1834
1739 1835
1739 1838
1739 1839
1739 1842
1739 1860
1739 1865
1739 1867
1739 1870
1739 1871
1739 1877
1739 1887
1739 1915
1739 1917
1739 1921
1739 1962
1739 1972
1739 1975
1739 1976
1739 1995
1740 1756
1740 1758
1740 1763
1740 1775
1740 1778
1740 1800
1740 1825
1740 1830
1740 1876
1740 1885
1740 1888
1740 1891
1740 1894
1740 1918
1740 1939
1740 1943
1740 1952
1740 1967
1740 1968
1740 1975
1740 1986
1740 1988
1741 1760
1741 1761
1741 1763
1741 1764
1741 1773
1741 1780
1741 1782
1741 1794
1741 1799
1741 1806
1741 1829
1741 1847
1741 1857
1741 1861
1741 1867
1741 1870
1741 1876
1741 1895
1741 1898
1741 1904
1741 1910
1741 1914
1741 1915
1741 1920
1741 1925
1741 1930
1741 1934
1741 1944
1741 1946
1741 1947
1741 1950
1741 1966
1741 1967
1741 1971
1741 1978
1741 1991
1742 1744
1742 1747
1742 1760
1742 1771
1742 1793
1742 1801
1742 1807
1742 1843
1742 1856
1742 1863
1742 1864
1742 1870
1742 1892
1742 1894
1742 1898
1742 1899
1742 1922
1742 1928
1742 1930
1742 1941
1742 1948
1742 1958
1742 1961
1743 1744
1743 1751
1743 1771
1743 1773
1743 1798
1743 1819
1743 1836
1743 1839
1743 1840
1743 1845
1743 1857
1743 1862
1743 1878
1743 1881
1743 1883
1743 1903
1743 1905
1743 1909
1743 1918
1743 1934
1743 1950
1743 1959
1743 1975
1743 1986
1743 1998
1744 1745
1744 1757
1744 1762
1744 1771
1744 1772
1744 1787
1744 1794
1744 1799
1744 1804
1744 1826
1744 1838
1744 1851
1744 1853
1744 1859
1744 1893
1744 1900
1744 1928
1744 1930
1744 1939
1744 1944
1744 1948
1744 1961
1744 1978
1745 1746
1745 1750
1745 1757
1745 1793
1745 1814
1745 1826
1745 1848
1745 1850
1745 1868
1745 1908
1745 1937
1745 1962
1745 1973
1745 1978
1745 1991
1746 1747
1746 1776
1746 1785
1746 1791
1746 1795
1746 1808
1746 1817
1746 1819
1746 1852
1746 1853
1746 1870
1746 1882
1746 1889
1746 1902
1746 1905
1746 1911
1746 1915
1746 1916
1746 1929
1746 1933
1746 1942
1746 1946
1746 1947
1746 1950
1746 1952
1746 1957
1746 1960
1746 1963
1746 1964
1746 1978
1746 1983
1746 1985
1747 1749
1747 1754
1747 1758
1747 1760
1747 1791
1747 1802
1747 1822
1747 1824
1747 1829
1747 1843
1747 1853
1747 1861
1747 1875
1747 1876
1747 1883
1747 1894
1747 1908
1747 1934
1747 1948
1747 1953
1747 1957
1747 1962
1747 1963
1747 1985
1747 1995
1747 1999
1748 1753
1748 1776
1748 1781
1748 1788
1748 1796
1748 1799
1748 1805
1748 1814
1748 1822
1748 1831
1748 1860
1748 1909
1748 1920
1748 1936
1748 1945
1748 1953
1748 1960
1748 1965
1748 1985
1748 1989
1748 1991
1749 1757
1749 1769
1749 1773
1749 1779
1749 1790
1749 1793
1749 1804
1749 1847
1749 1877
1749 1881
1749 1901
1749 1927
1749 1929
1749 1933
1749 1968
1749 1975
1749 1978
1750 1751
1750 1760
1750 1761
1750 1765
1750 1769
1750 1806
1750 1807
1750 1815
1750 1820
1750 1837
1750 1840
1750 1846
1750 1855
1750 1869
1750 1874
1750 1889
1750 1912
1750 1917
1750 1925
1750 1926
1750 1940
1750 1943
1750 1948
1750 1964
1750 1973
1750 1978
1751 1754
1751 1755
1751 1777
1751 1779
1751 1785
1751 1792
1751 1796
1751 1799
1751 1820
1751 1834
1751 1852
1751 1865
1751 1877
1751 1899
1751 1902
1751 1903
1751 1915
1751 1934
1751 1936
1751 1947
1751 1955
1751 1956
1751 1963
1751 1970
1751 1976
1751 1986
1751 1999
1752 1776
1752 1794
1752 1813
1752 1822
1752 1838
1752 1854
1752 1874
1752 1886
1752 1892
1752 1910
1752 1911
1752 1912
1752 1921
1752 1925
1752 1936
1752 1947
1752 1960
1752 1961
1752 1963
1752 1975
1752 1997
1753 1756
1753 1791
1753 1797
1753 1801
1753 1820
1753 1821
1753 1845
1753 1860
1753 1873
1753 1881
1753 1882
1753 1902
1753 1938
1753 1960
1753 1961
1753 1979
1753 1982
1753 1989
1753 1995
1753 1997
1754 1755
1754 1756
1754 1757
1754 1760
1754 1762
1754 1766
1754 1778
1754 1802
1754 1804
1754 1821
1754 1824
1754 1828
1754 1835
1754 1848
1754 1864
1754 1868
1754 1879
1754 1884
1754 1925
1754 1929
1754 1930
1754 1963
1754 1969
1754 1971
1754 1988
1754 1992
1754 1994
1755 1768
1755 1825
1755 1826
1755 1856
1755 1857
1755 1858
1755 1867
1755 1871
1755 1896
1755 1907
1755 1923
1755 1930
1755 1959
1755 1969
1755 1982
1755 1990
1755 1994
1756 1760
1756 1764
1756 1774
1756 1783
1756 1787
1756 1799
1756 1809
1756 1821
1756 1825
1756 1838
1756 1857
1756 1881
1756 1924
1756 1926
1756 1939
1756 1946
1756 1968
1756 1969
1756 1980
1756 1991
1756 1994
1757 1768
1757 1778
1757 1809
1757 1813
1757 1817
1757 1821
1757 1829
1757 1844
1757 1846
1757 1848
1757 1866
1757 1876
1757 1880
1757 1886
1757 1919
1757 1920
1757 1935
1757 1947
1757 1953
1757 1955
1757 1963
1757 1988
1757 1993
1757 1996
1758 1773
1758 1779
1758 1784
1758 1790
1758 1820
1758 1823
1758 1834
1758 1842
1758 1845
1758 1848
1758 1849
1758 1869
1758 1871
1758 1880
1758 1887
1758 1896
1758 1901
1758 1909
1758 1910
1758 1912
1758 1914
1758 1930
1758 1949
1758 1958
1758 1963
1758 1968
1758 1981
1758 1985
1758 1990
1758 1994
1758 1998
1759 1801
1759 1806
1759 1819
1759 1838
1759 1874
1759 1878
1759 1897
1759 1901
1759 1906
1759 1911
1759 1923
1759 1940
1759 1943
1759 1962
1759 1996
1760 1790
1760 1808
1760 1817
1760 1830
1760 1844
1760 1848
1760 1851
1760 1856
1760 1859
1760 1862
1760 1884
1760 1911
1760 1918
1760 1931
1760 1932
1760 1940
1760 1949
1760 1981
1760 1995
1760 1998
1761 1787
1761 1790
1761 1791
1761 1826
1761 1837
1761 1838
1761 1843
1761 1848
1761 1869
1761 1882
1761 1884
1761 1894
1761 1915
1761 1937
1761 1947
1761 1964
1761 1979
1761 1980
1761 1984
1761 1996
1761 1999
1762 1772
1762 1776
1762 1807
1762 1823
1762 1827
1762 1834
1762 1845
1762 1862
1762 1863
1762 1875
1762 1896
1762 1901
1762 1907
1762 1921
1762 1939
1762 1989
1762 1990
1763 1765
1763 1778
1763 1785
1763 1796
1763 1801
1763 1802
1763 1819
1763 1828
1763 1832
1763 1840
1763 1849
1763 1869
1763 1870
1763 1871
1763 1873
1763 1881
1763 1893
1763 1898
1763 1901
1763 1902
1763 1926
1763 1931
1763 1932
1763 1935
1763 1937
1763 1982
1763 1983
1763 1986
1763 1988
1763 1991
1764 1773
1764 1787
1764 1794
1764 1801
1764 1825
1764 1827
1764 1840
1764 1848
1764 1852
1764 1873
1764 1889
1764 1903
1764 1918
1764 1931
1764 1957
1764 1962
1764 1964
1764 1968
1764 1971
1764 1985
1765 1769
1765 1772
1765 1783
1765 1792
1765 1795
1765 1833
1765 1843
1765 1854
1765 1857
1765 1861
1765 1864
1765 1877
1765 1884
1765 1888
1765 1904
1765 1906
1765 1908
1765 1909
1765 1911
1765 1917
1765 1927
1765 1932
1765 1937
1765 1946
1765 1948
1765 1951
1766 1779
1766 1785
1766 1796
1766 1814
1766 1818
1766 1820
1766 1821
1766 1841
1766 1842
1766 1849
1766 1864
1766 1873
1766 1892
1766 1894
1766 1896
1766 1898
1766 1938
1766 1962
1766 1971
1766 1986
1767 1776
1767 1779
1767 1787
1767 1789
1767 1802
1767 1815
1767 1819
1767 1821
1767 1823
1767 1834
1767 1838
1767 1843
1767 1866
1767 1868
1767 1870
1767 1877
1767 1882
1767 1888
1767 1896
1767 1919
1767 1922
1767 1926
1767 1931
1767 1944
1767 1981
1767 1985
1767 1988
1767 1993
1768 1770
1768 1783
1768 1791
1768 1805
1768 1813
1768 1815
1768 1818
1768 1823
1768 1830
1768 1835
1768 1836
1768 1843
1768 1845
1768 1850
1768 1851
1768 1855
1768 1873
1768 1874
1768 1879
1768 1900
1768 1904
1768 1927
1768 1938
1768 1945
1768 1947
1768 1955
1768 1958
1768 1974
1768 1975
1768 1981
1768 1984
1769 1778
1769 1785
1769 1788
1769 1799
1769 1809
1769 1818
1769 1836
1769 1859
1769 1862
1769 1869
1769 1889
1769 1892
1769 1894
1769 1908
1769 1949
1769 1961
1769 1988
1769 1989
1769 1993
1770 1804
1770 1805
1770 1851
1770 1857
1770 1864
1770 1866
1770 1868
1770 1874
1770 1876
1770 1897
1770 1898
1770 1900
1770 1918
1770 1928
1770 1936
1770 1947
1770 1958
1770 1967
1770 1969
1770 1970
1770 1974
1770 1992
1771 1778
1771 1793
1771 1797
1771 1800
1771 1801
1771 1803
1771 1818
1771 1825
1771 1828
1771 1837
1771 1846
1771 1861
1771 1862
1771 1865
1771 1874
1771 1878
1771 1880
1771 1899
1771 1902
1771 1904
1771 1909
1771 1914
1771 1931
1771 1933
1771 1940
1771 1945
1771 1948
1771 1949
1771 1952
1771 1959
1771 1973
1771 1974
1771 1988
1771 1990
1771 1994
1771 1995
1772 1780
1772 1788
1772 1792
1772 1812
1772 1844
1772 1898
1772 1904
1772 1955
1772 1963
1772 1974
1772 1980
1772 1999
1773 1807
1773 1817
1773 1818
1773 1829
1773 1843
1773 1844
1773 1850
1773 1852
1773 1853
1773 1857
1773 1862
1773 1867
1773 1868
1773 1878
1773 1912
1773 1922
1773 1927
1773 1932
1773 1959
1773 1973
1773 1974
1773 1992
1774 1776
1774 1794
1774 1795
1774 1867
1774 1875
1774 1877
1774 1893
1774 1901
1774 1916
1774 1934
1774 1939
1774 1941
1774 1973
1774 1985
1774 1988
1775 1776
1775 1786
1775 1798
1775 1801
1775 1813
1775 1820
1775 1839
1775 1861
1775 1863
1775 1882
1775 1887
1775 1889
1775 1890
1775 1894
1775 1907
1775 1909
1775 1920
1775 1923
1775 1940
1775 1941
1775 1947
1775 1961
1775 1969
1775 1980
1775 1990
1775 1994
1776 1779
1776 1790
1776 1791
1776 1794
1776 1803
1776 1808
1776 1813
1776 1817
1776 1822
1776 1826
1776 1833
1776 1848
1776 1873
1776 1881
1776 1884
1776 1885
1776 1891
1776 1909
1776 1916
1776 1927
1776 1933
1776 1945
1776 1949
1776 1951
1776 1954
1776 1955
1776 1961
1776 1965
1776 1972
1777 1778
1777 1789
1777 1791
1777 1797
1777 1824
1777 1826
1777 1855
1777 1860
1777 1873
1777 1881
1777 1891
1777 1892
1777 1897
1777 1899
1777 1925
1777 1927
1777 1971
1777 1977
1777 1983
1777 1986
1778 1808
1778 1841
1778 1844
1778 1854
1778 1861
1778 1869
1778 1870
1778 1891
1778 1936
1778 1942
1778 1952
1778 1955
1778 1961
1778 1975
1778 1985
1778 1991
1778 1993
1779 1795
1779 1810
1779 1823
1779 1843
1779 1844
1779 1847
1779 1869
1779 1889
1779 1891
1779 1897
1779 1914
1779 1915
1779 1925
1779 1927
1779 1932
1779 1955
1779 1956
1779 1961
1779 1971
1779 1992
1780 1800
1780 1810
1780 1815
1780 1823
1780 1825
1780 1826
1780 1828
1780 1829
1780 1852
1780 1862
1780 1864
1780 1868
1780 1888
1780 1890
1780 1906
1780 1926
1780 1930
1780 1947
1780 1965
1780 1968
1780 1983
1780 1996
1781 1787
1781 1806
1781 1808
1781 1815
1781 1831
1781 1846
1781 1862
1781 1866
1781 1876
1781 1887
1781 1888
1781 1906
1781 1930
1781 1943
1781 1944
1781 1952
1781 1963
1781 1970
1781 1979
1781 1980
1781 1981
1781 1988
1781 1992
1782 1784
1782 1786
1782 1787
1782 1802
1782 1811
1782 1813
1782 1816
1782 1831
1782 1847
1782 1870
1782 1871
1782 1874
1782 1877
1782 1896
1782 1916
1782 1934
1782 1939
1782 1951
1782 1995
1783 1788
1783 1796
1783 1824
1783 1832
1783 1833
1783 1834
1783 1844
1783 1846
1783 1848
1783 1867
1783 1869
1783 1881
1783 1895
1783 1898
1783 1906
1783 1908
1783 1916
1783 1954
1783 1960
1783 1962
1783 1965
1783 1968
1783 1983
1783 1994
1784 1788
1784 1793
1784 1797
1784 1800
1784 1852
1784 1855
1784 1869
1784 1880
1784 1888
1784 1903
1784 1934
1784 1949
1784 1984
1784 1987
1784 1991
1785 1791
1785 1812
1785 1818
1785 1844
1785 1863
1785 1871
1785 1878
1785 1888
1785 1891
1785 1893
1785 1905
1785 1906
1785 1908
1785 1918
1785 1921
1785 1924
1785 1938
1785 1942
1785 1954
1785 1986
1785 1997
1786 1788
1786 1790
1786 1794
1786 1799
1786 1810
1786 1820
1786 1824
1786 1844
1786 1848
1786 1850
1786 1860
1786 1863
1786 1871
1786 1872
1786 1875
1786 1903
1786 1916
1786 1917
1786 1947
1786 1957
1786 1963
1786 1969
1786 1970
1786 1972
1786 1973
1786 1979
1786 1981
1787 1811
1787 1873
1787 1885
1787 1894
1787 1902
1787 1907
1787 1921
1787 1924
1787 1935
1787 1942
1787 1952
1787 1955
1787 1982
1787 1983
1787 1984
1787 1993
1788 1799
1788 1804
1788 1812
1788 1818
1788 1821
1788 1826
1788 1827
1788 1837
1788 1839
1788 1840
1788 1853
1788 1858
1788 1862
1788 1882
1788 1888
1788 1897
1788 1903
1788 1912
1788 1935
1788 1937
1788 1968
1788 1974
1788 1986
1789 1810
1789 1846
1789 1878
1789 1885
1789 1886
1789 1894
1789 1907
1789 1908
1789 1909
1789 1914
1789 1915
1789 1923
1789 1941
1789 1947
1789 1960
1789 1991
1790 1794
1790 1795
1790 1800
1790 1828
1790 1857
1790 1863
1790 1887
1790 1888
1790 1896
1790 1904
1790 1912
1790 1924
1790 1931
1790 1937
1790 1948
1790 1957
1790 1958
1790 1959
1790 1961
1790 1969
1790 1983
1791 1798
1791 1800
1791 1811
1791 1812
1791 1817
1791 1827
1791 1831
1791 1836
1791 1843
1791 1850
1791 1857
1791 1858
1791 1869
1791 1882
1791 1883
1791 1899
1791 1924
1791 1939
1791 1941
1791 1947
1791 1951
1791 1976
1791 1981
1791 1985
1791 1994
1792 1802
1792 1818
1792 1847
1792 1864
1792 1874
1792 1876
1792 1880
1792 1883
1792 1895
1792 1933
1792 1947
1792 1948
1792 1954
1792 1959
1792 1960
1792 1974
1792 1976
1792 1983
1792 1996
1793 1808
1793 1821
1793 1822
1793 1846
1793 1847
1793 1855
1793 1876
1793 1884
1793 1885
1793 1892
1793 1897
1793 1902
1793 1904
1793 1918
1793 1925
1793 1945
1793 1949
1793 1952
1793 1958
1793 1959
1793 1980
1793 1982
1794 1802
1794 1816
1794 1842
1794 1857
1794 1858
1794 1875
1794 1876
1794 1877
1794 1891
1794 1895
1794 1898
1794 1910
1794 1911
1794 1912
1794 1921
1794 1924
1794 1928
1794 1933
1794 1935
1794 1937
1794 1944
1794 1954
1794 1967
1794 1972
1794 1986
1794 1987
1795 1810
1795 1813
1795 1820
1795 1826
1795 1828
1795 1829
1795 1837
1795 1851
1795 1856
1795 1868
1795 1883
1795 1884
1795 1888
1795 1890
1795 1894
1795 1896
1795 1912
1795 1913
1795 1920
1795 1961
1795 1980
1795 1992
1795 1994
1795 1999
1796 1801
1796 1806
1796 1821
1796 1825
1796 1839
1796 1851
1796 1866
1796 1877
1796 1896
1796 1905
1796 1924
1796 1944
1796 1952
1796 1977
1796 1995
1797 1814
1797 1815
1797 1825
1797 1839
1797 1863
1797 1866
1797 1875
1797 1883
1797 1893
1797 1906
1797 1908
1797 1912
1797 1913
1797 1917
1797 1921
1797 1924
1797 1929
1797 1931
1797 1934
1797 1952
1797 1953
1797 1966
1797 1972
1798 1815
1798 1850
1798 1874
1798 1885
1798 1896
1798 1907
1798 1913
1798 1915
1798 1917
1798 1936
1798 1942
1798 1973
1798 1985
1798 1990
1799 1808
1799 1838
1799 1848
1799 1851
1799 1859
1799 1869
1799 1878
1799 1886
1799 1889
1799 1911
1799 1923
1799 1965
1799 1970
1799 1972
1799 1999
1800 1809
1800 1816
1800 1841
1800 1854
1800 1869
1800 1877
1800 1878
1800 1883
1800 1885
1800 1886
1800 1888
1800 1910
1800 1927
1800 1938
1800 1943
1800 1946
1800 1955
1800 1958
1800 1976
1800 1982
1800 1991
1800 1993
1800 1996
1801 1803
1801 1812
1801 1824
1801 1829
1801 1838
1801 1845
1801 1865
1801 1867
1801 1909
1801 1911
1801 1933
1801 1957
1801 1960
1801 1978
1801 1983
1801 1991
1801 1999
1802 1812
1802 1821
1802 1839
1802 1854
1802 1855
1802 1864
1802 1873
1802 1879
1802 1880
1802 1916
1802 1917
1802 1920
1802 1942
1802 1943
1802 1951
1802 1969
1802 1972
1802 1984
1803 1831
1803 1836
1803 1837
1803 1857
1803 1861
1803 1876
1803 1877
1803 1878
1803 1884
1803 1894
1803 1898
1803 1908
1803 1915
1803 1918
1803 1939
1803 1968
1803 1970
1803 1979
1804 1818
1804 1819
1804 1841
1804 1842
1804 1844
1804 1845
1804 1848
1804 1869
1804 1880
1804 1907
1804 1913
1804 1933
1804 1951
1804 1956
1804 1983
1804 1999
1805 1807
1805 1837
1805 1852
1805 1853
1805 1865
1805 1874
1805 1876
1805 1877
1805 1888
1805 1912
1805 1933
1805 1963
1805 1964
1805 1971
1806 1814
1806 1824
1806 1836
1806 1846
1806 1849
1806 1862
1806 1873
1806 1878
1806 1885
1806 1903
1806 1913
1806 1940
1806 1947
1806 1969
1806 1979
1806 1981
1806 1992
1807 1811
1807 1817
1807 1819
1807 1821
1807 1837
1807 1842
1807 1848
1807 1856
1807 1864
1807 1891
1807 1893
1807 1903
1807 1915
1807 1917
1807 1920
1807 1932
1807 1936
1807 1947
1807 1954
1807 1962
1807 1969
1807 1972
1807 1983
1807 1993
1807 1995
1808 1815
1808 1819
1808 1824
1808 1830
1808 1847
1808 1852
1808 1860
1808 1861
1808 1899
1808 1914
1808 1942
1808 1950
1808 1962
1808 1963
1808 1971
1808 1979
1808 1997
1809 1827
1809 1836
1809 1843
1809 1846
1809 1851
1809 1859
1809 1870
1809 1872
1809 1878
1809 1881
1809 1883
1809 1888
1809 1895
1809 1908
1809 1911
1809 1916
1809 1922
1809 1930
1809 1940
1809 1941
1809 1969
1809 1979
1809 1987
1809 1993
1809 1994
1810 1813
1810 1815
1810 1819
1810 1843
1810 1859
1810 1879
1810 1883
1810 1885
1810 1891
1810 1895
1810 1900
1810 1901
1810 1913
1810 1921
1810 1925
1810 1931
1810 1962
1810 1967
1810 1969
1810 1981
1810 1982
1811 1814
1811 1823
1811 1828
1811 1829
1811 1842
1811 1854
1811 1860
1811 1865
1811 1866
1811 1871
1811 1877
1811 1880
1811 1883
1811 1924
1811 1935
1811 1953
1811 1968
1811 1974
1811 1987
1811 1992
1811 1993
1811 1997
1811 1998
1812 1821
1812 1831
1812 1839
1812 1849
1812 1855
1812 1856
1812 1867
1812 1883
1812 1885
1812 1900
1812 1910
1812 1926
1812 1937
1812 1938
1812 1963
1812 1973
1812 1975
1812 1977
1812 1990
1812 1992
1813 1821
1813 1826
1813 1832
1813 1837
1813 1841
1813 1845
1813 1880
1813 1910
1813 1929
1813 1932
1813 1933
1813 1944
1813 1975
1813 1987
1813 1995
1814 1816
1814 1821
1814 1823
1814 1838
1814 1839
1814 1841
1814 1843
1814 1848
1814 1861
1814 1865
1814 1872
1814 1876
1814 1882
1814 1912
1814 1919
1814 1934
1814 1937
1814 1953
1814 1958
1814 1962
1814 1980
1814 1982
1815 1836
1815 1837
1815 1841
1815 1865
1815 1869
1815 1878
1815 1889
1815 1897
1815 1912
1815 1918
1815 1922
1815 1929
1815 1939
1815 1942
1815 1946
1815 1949
1815 1951
1815 1954
1815 1967
1815 1979
1815 1991
1815 1996
1816 1819
1816 1825
1816 1829
1816 1869
1816 1875
1816 1878
1816 1920
1816 1921
1816 1944
1816 1946
1816 1950
1816 1960
1816 1962
1816 1972
1816 1973
1816 1982
1816 1989
1817 1820
1817 1830
1817 1834
1817 1846
1817 1851
1817 1857
1817 1860
1817 1870
1817 1878
1817 1882
1817 1888
1817 1893
1817 1940
1817 1942
1817 1943
1817 1947
1817 1949
1817 1958
1817 1963
1817 1969
1817 1980
1817 1986
1818 1846
1818 1856
1818 1872
1818 1879
1818 1891
1818 1897
1818 1909
1818 1915
1818 1922
1818 1929
1818 1930
1818 1940
1818 1948
1818 1951
1818 1954
1818 1961
1818 1967
1818 1974
1818 1979
1818 1987
1818 1995
1818 1997
1819 1833
1819 1841
1819 1842
1819 1844
1819 1851
1819 1874
1819 1915
1819 1916
1819 1919
1819 1934
1819 1953
1819 1964
1819 1975
1819 1980
1820 1832
1820 1838
1820 1853
1820 1858
1820 1861
1820 1863
1820 1865
1820 1878
1820 1890
1820 1896
1820 1905
1820 1917
1820 1939
1820 1947
1820 1955
1820 1965
1820 1971
1820 1982
1820 1986
1821 1822
1821 1846
1821 1850
1821 1864
1821 1869
1821 1870
1821 1873
1821 1882
1821 1892
1821 1897
1821 1924
1821 1926
1821 1937
1821 1938
1821 1940
1821 1958
1821 1960
1821 1993
1822 1823
1822 1832
1822 1833
1822 1844
1822 1854
1822 1859
1822 1885
1822 1888
1822 1902
1822 1909
1822 1920
1822 1926
1822 1931
1822 1984
1822 1989
1822 1993
1822 1996
1823 1846
1823 1849
1823 1854
1823 1877
1823 1878
1823 1890
1823 1908
1823 1911
1823 1922
1823 1925
1823 1933
1823 1961
1823 1962
1823 1964
1823 1968
1823 1998
1824 1837
1824 1857
1824 1861
1824 1877
1824 1885
1824 1891
1824 1913
1824 1929
1824 1934
1824 1936
1824 1949
1824 1952
1824 1960
1824 1983
1824 1985
1824 1989
1825 1829
1825 1847
1825 1851
1825 1852
1825 1857
1825 1858
1825 1861
1825 1897
1825 1925
1825 1926
1825 1941
1825 1943
1825 1947
1825 1948
1825 1961
1825 1962
1825 1967
1825 1971
1825 1988
1825 1993
1825 1996
1826 1840
1826 1843
1826 1845
1826 1854
1826 1858
1826 1876
1826 1877
1826 1902
1826 1939
1826 1940
1826 1946
1826 1966
1826 1975
1826 1976
1826 1991
1827 1850
1827 1855
1827 1860
1827 1893
1827 1905
1827 1906
1827 1910
1827 1913
1827 1940
1827 1962
1827 1969
1827 1971
1827 1974
1827 1993
1827 1994
1827 1995
1828 1835
1828 1836
1828 1838
1828 1841
1828 1842
1828 1848
1828 1860
1828 1861
1828 1876
1828 1908
1828 1916
1828 1928
1828 1957
1828 1959
1828 1962
1828 1969
1828 1977
1828 1989
1828 1991
1828 1992
1828 1993
1829 1837
1829 1871
1829 1879
1829 1885
1829 1888
1829 1909
1829 1918
1829 1929
1829 1947
1829 1958
1829 1965
1830 1834
1830 1836
1830 1858
1830 1870
1830 1876
1830 1878
1830 1886
1830 1912
1830 1913
1830 1914
1830 1941
1830 1954
1830 1962
1830 1963
1830 1964
1830 1967
1830 1970
1830 1980
1830 1993
1831 1843
1831 1853
1831 1861
1831 1874
1831 1877
1831 1915
1831 1923
1831 1929
1831 1930
1831 1931
1831 1936
1831 1950
1831 1959
1831 1980
1832 1837
1832 1849
1832 1851
1832 1856
1832 1857
1832 1880
1832 1882
1832 1896
1832 1898
1832 1899
1832 1905
1832 1916
1832 1945
1832 1949
1832 1953
1832 1975
1832 1976
1832 1977
1833 1835
1833 1836
1833 1847
1833 1852
1833 1857
1833 1863
1833 1867
1833 1897
1833 1907
1833 1936
1833 1954
1833 1985
1833 1997
1834 1836
1834 1840
1834 1856
1834 1866
1834 1869
1834 1882
1834 1890
1834 1893
1834 1915
1834 1938
1834 1957
1834 1959
1834 1963
1835 1839
1835 1841
1835 1899
1835 1904
1835 1905
1835 1907
1835 1908
1835 1910
1835 1921
1835 1931
1835 1932
1835 1937
1835 1940
1835 1965
1835 1967
1835 1981
1835 1999
1836 1850
1836 1853
1836 1864
1836 1866
1836 1867
1836 1882
1836 1890
1836 1896
1836 1904
1836 1906
1836 1912
1836 1917
1836 1921
1836 1923
1836 1933
1836 1936
1836 1945
1836 1964
1836 1973
1836 1999
1837 1864
1837 1865
1837 1866
1837 1869
1837 1870
1837 1873
1837 1878
1837 1891
1837 1900
1837 1908
1837 1925
1837 1936
1837 1940
1837 1950
1837 1993
1838 1848
1838 1854
1838 1869
1838 1870
1838 1873
1838 1874
1838 1876
1838 1901
1838 1902
1838 1906
1838 1909
1838 1920
1838 1931
1838 1945
1838 1949
1838 1955
1838 1983
1838 1987
1839 1852
1839 1856
1839 1866
1839 1870
1839 1899
1839 1924
1839 1937
1839 1957
1839 1966
1839 1975
1839 1977
1839 1990
1839 1993
1839 1995
1839 1998
1840 1843
1840 1844
1840 1872
1840 1878
1840 1883
1840 1886
1840 1890
1840 1896
1840 1899
1840 1908
1840 1952
1840 1959
1840 1964
1840 1978
1841 1855
1841 1857
1841 1894
1841 1916
1841 1935
1841 1946
1841 1948
1841 1951
1841 1952
1841 1953
1841 1965
1841 1966
1841 1980
1841 1988
1841 1995
1842 1849
1842 1885
1842 1898
1842 1910
1842 1927
1842 1935
1842 1960
1842 1972
1842 1984
1842 1997
1842 1998
1843 1845
1843 1847
1843 1869
1843 1902
1843 1919
1843 1922
1843 1935
1843 1945
1843 1961
1843 1972
1843 1974
1844 1849
1844 1851
1844 1853
1844 1867
1844 1869
1844 1904
1844 1915
1844 1922
1844 1924
1844 1933
1844 1944
1844 1950
1844 1955
1844 1992
1844 1995
1844 1996
1845 1856
1845 1869
1845 1875
1845 1881
1845 1900
1845 1901
1845 1904
1845 1910
1845 1914
1845 1924
1845 1930
1845 1936
1845 1939
1845 1940
1845 1946
1845 1955
1845 1972
1845 1977
1845 1995
1845 1996
1845 1998
1846 1858
1846 1864
1846 1867
1846 1869
1846 1874
1846 1875
1846 1900
1846 1901
1846 1909
1846 1923
1846 1938
1846 1940
1846 1946
1846 1948
1846 1949
1846 1956
1846 1973
1846 1986
1846 1989
1846 1999
1847 1854
1847 1855
1847 1868
1847 1875
1847 1883
1847 1896
1847 1914
1847 1924
1847 1928
1847 1940
1847 1941
1847 1955
1847 1969
1847 1973
1847 1983
1848 1851
1848 1860
1848 1861
1848 1890
1848 1896
1848 1902
1848 1906
1848 1909
1848 1912
1848 1921
1848 1922
1848 1925
1848 1946
1848 1966
1848 1971
1848 1996
1849 1853
1849 1860
1849 1878
1849 1888
1849 1889
1849 1901
1849 1916
1849 1921
1849 1923
1849 1929
1849 1931
1849 1933
1849 1940
1849 1941
1849 1942
1849 1947
1849 1951
1849 1961
1849 1963
1849 1968
1849 1969
1849 1980
1849 1994
1849 1996
1850 1853
1850 1858
1850 1867
1850 1872
1850 1874
1850 1877
1850 1897
1850 1908
1850 1935
1850 1945
1850 1951
1850 1955
1850 1963
1850 1976
1850 1991
1851 1859
1851 1874
1851 1928
1851 1930
1851 1943
1851 1944
1851 1979
1851 1983
1851 1987
1851 1989
1851 1991
1852 1856
1852 1859
1852 1868
1852 1871
1852 1886
1852 1889
1852 1894
1852 1903
1852 1912
1852 1931
1852 1970
1853 1879
1853 1893
1853 1899
1853 1900
1853 1905
1853 1910
1853 1913
1853 1915
1853 1922
1853 1930
1853 1936
1853 1938
1853 1945
1853 1947
1853 1958
1853 1977
1853 1989
1853 1996
1854 1856
1854 1874
1854 1884
1854 1889
1854 1900
1854 1923
1854 1928
1854 1931
1854 1937
1854 1946
1854 1990
1854 1999
1855 1881
1855 1901
1855 1922
1855 1924
1855 1930
1855 1934
1855 1947
1855 1966
1855 1974
1855 1998
1856 1874
1856 1877
1856 1878
1856 1891
1856 1894
1856 1904
1856 1909
1856 1912
1856 1939
1856 1962
1856 1972
1856 1975
1856 1996
1856 1998
1857 1859
1857 1860
1857 1863
1857 1895
1857 1956
1857 1965
1857 1988
1857 1993
1858 1861
1858 1890
1858 1891
1858 1960
1858 1981
1858 1984
1858 1989
1858 1992
1859 1860
1859 1863
1859 1870
1859 1871
1859 1873
1859 1878
1859 1891
1859 1895
1859 1911
1859 1942
1859 1980
1859 1983
1859 1989
1859 1992
1859 1993
1860 1871
1860 1879
1860 1891
1860 1897
1860 1904
1860 1905
1860 1916
1860 1924
1860 1928
1860 1935
1860 1940
1860 1967
1860 1976
1860 1977
1861 1875
1861 1895
1861 1898
1861 1899
1861 1914
1861 1936
1861 1943
1861 1947
1861 1953
1861 1955
1861 1965
1861 1990
1861 1991
1862 1868
1862 1875
1862 1880
1862 1882
1862 1923
1862 1935
1862 1964
1862 1966
1862 1973
1862 1984
1862 1985
1862 1986
1862 1989
1863 1865
1863 1870
1863 1887
1863 1895
1863 1918
1863 1930
1863 1932
1863 1954
1863 1955
1864 1877
1864 1898
1864 1913
1864 1921
1864 1923
1864 1944
1864 1953
1864 1962
1864 1972
1864 1994
1864 1995
1865 1879
1865 1880
1865 1892
1865 1893
1865 1901
1865 1902
1865 1919
1865 1922
1865 1953
1865 1956
1865 1971
1866 1875
1866 1884
1866 1901
1866 1908
1866 1921
1866 1926
1866 1931
1866 1953
1866 1977
1866 1981
1866 1983
1866 1998
1867 1869
1867 1875
1867 1882
1867 1889
1867 1890
1867 1905
1867 1910
1867 1918
1867 1919
1867 1921
1867 1935
1867 1944
1867 1948
1867 1949
1867 1967
1867 1988
1867 1989
1867 1995
1868 1873
1868 1874
1868 1884
1868 1894
1868 1899
1868 1906
1868 1908
1868 1922
1868 1932
1868 1939
1868 1952
1868 1960
1868 1963
1868 1968
1868 1972
1868 1987
1869 1877
1869 1879
1869 1881
1869 1896
1869 1904
1869 1910
1869 1918
1869 1929
1869 1938
1869 1942
1869 1949
1869 1965
1869 1978
1869 1989
1869 1999
1870 1878
1870 1896
1870 1901
1870 1909
1870 1920
1870 1944
1870 1964
1870 1970
1870 1973
1870 1985
1870 1987
1870 1990
1870 1991
1870 1992
1871 1879
1871 1880
1871 1902
1871 1907
1871 1916
1871 1919
1871 1930
1871 1932
1871 1934
1871 1942
1871 1954
1871 1957
1871 1972
1872 1874
1872 1878
1872 1903
1872 1904
1872 1906
1872 1920
1872 1926
1872 1937
1872 1945
1872 1949
1872 1965
1872 1970
1872 1976
1872 1977
1872 1991
1872 1992
1872 1999
1873 1881
1873 1886
1873 1890
1873 1927
1873 1929
1873 1972
1873 1986
1873 1995
1874 1879
1874 1904
1874 1908
1874 1910
1874 1929
1874 1948
1874 1960
1874 1963
1874 1964
1875 1880
1875 1881
1875 1884
1875 1887
1875 1893
1875 1920
1875 1938
1875 1946
1875 1950
1875 1965
1875 1967
1875 1980
1875 1981
1875 1986
1876 1879
1876 1889
1876 1895
1876 1896
1876 1897
1876 1907
1876 1917
1876 1929
1876 1932
1876 1934
1876 1941
1876 1945
1876 1973
1876 1977
1876 1986
1876 1987
1876 1989
1876 1990
1876 1999
1877 1879
1877 1888
1877 1889
1877 1892
1877 1898
1877 1908
1877 1910
1877 1911
1877 1937
1877 1938
1877 1944
1877 1951
1877 1965
1877 1967
1877 1969
1877 1981
1877 1983
1877 1999
1878 1887
1878 1892
1878 1900
1878 1909
1878 1910
1878 1913
1878 1940
1878 1942
1878 1950
1878 1952
1878 1956
1878 1957
1879 1888
1879 1918
1879 1919
1879 1920
1879 1936
1879 1941
1879 1973
1879 1976
1879 1979
1879 1994
1879 1995
1880 1890
1880 1896
1880 1934
1880 1948
1880 1960
1880 1973
1880 1975
1880 1980
1880 1984
1880 1996
1881 1887
1881 1901
1881 1914
1881 1916
1881 1919
1881 1924
1881 1943
1881 1944
1881 1949
1881 1954
1881 1956
1881 1963
1881 1964
1881 1967
1881 1971
1881 1996
1882 1885
1882 1894
1882 1899
1882 1927
1882 1929
1882 1931
1882 1962
1882 1969
1882 1980
1882 1984
1882 1993
1882 1999
1883 1885
1883 1890
1883 1913
1883 1917
1883 1923
1883 1947
1883 1961
1883 1966
1883 1968
1883 1976
1883 1992
1884 1892
1884 1903
1884 1909
1884 1910
1884 1918
1884 1920
1884 1955
1884 1956
1884 1958
1884 1970
1884 1980
1885 1890
1885 1894
1885 1913
1885 1914
1885 1939
1885 1947
1885 1951
1885 1964
1885 1967
1885 1968
1885 1970
1885 1982
1885 1984
1885 1986
1885 1989
1885 1994
1886 1901
1886 1902
1886 1911
1886 1921
1886 1936
1886 1939
1886 1943
1886 1945
1886 1952
1886 1953
1886 1955
1886 1978
1886 1985
1886 1986
1886 1997
1886 1998
1887 1888
1887 1902
1887 1908
1887 1917
1887 1921
1887 1924
1887 1930
1887 1949
1887 1956
1888 1893
1888 1904
1888 1935
1888 1944
1888 1949
1888 1964
1889 1890
1889 1908
1889 1919
1889 1922
1889 1924
1889 1929
1889 1946
1889 1957
1889 1958
1889 1961
1889 1988
1889 1991
1890 1892
1890 1912
1890 1930
1890 1938
1890 1983
1890 1986
1891 1893
1891 1903
1891 1934
1891 1947
1891 1949
1891 1961
1891 1965
1891 1974
1891 1982
1891 1985
1891 1996
1892 1893
1892 1938
1892 1949
1892 1964
1892 1966
1892 1998
1892 1999
1893 1895
1893 1897
1893 1898
1893 1901
1893 1906
1893 1909
1893 1914
1893 1924
1893 1928
1893 1934
1893 1936
1893 1937
1893 1940
1893 1952
1893 1964
1893 1979
1893 1984
1893 1986
1894 1911
1894 1918
1894 1933
1894 1936
1894 1949
1894 1963
1894 1965
1894 1992
1894 1999
1895 1898
1895 1910
1895 1914
1895 1918
1895 1922
1895 1924
1895 1957
1895 1960
1895 1995
1896 1912
1896 1921
1896 1927
1896 1937
1896 1946
1896 1958
1896 1959
1896 1966
1896 1979
1896 1982
1896 1984
1897 1905
1897 1924
1897 1929
1897 1936
1897 1937
1897 1981
1897 1992
1898 1901
1898 1918
1898 1927
1898 1930
1898 1939
1898 1964
1898 1970
1898 1974
1898 1984
1898 1985
1898 1986
1899 1940
1899 1945
1899 1971
1899 1974
1899 1995
1900 1904
1900 1921
1900 1925
1900 1942
1900 1944
1900 1945
1900 1956
1900 1977
1900 1982
1901 1904
1901 1907
1901 1912
1901 1914
1901 1915
1901 1920
1901 1924
1901 1928
1901 1932
1901 1935
1901 1968
1902 1927
1902 1939
1902 1941
1902 1946
1902 1957
1902 1958
1902 1973
1902 1991
1902 1996
1902 1997
1903 1907
1903 1914
1903 1918
1903 1930
1903 1940
1903 1959
1903 1972
1903 1974
1903 1996
1904 1927
1904 1936
1904 1937
1904 1951
1904 1967
1904 1973
1904 1979
1904 1995
1905 1909
1905 1911
1905 1919
1905 1925
1905 1928
1905 1942
1905 1960
1905 1971
1905 1984
1905 1996
1906 1919
1906 1921
1906 1922
1906 1936
1906 1952
1906 1964
1906 1967
1906 1968
1906 1976
1906 1981
1906 1993
1907 1910
1907 1913
1907 1914
1907 1924
1907 1934
1907 1936
1907 1946
1907 1962
1907 1964
1907 1969
1907 1988
1908 1909
1908 1916
1908 1919
1908 1927
1908 1929
1908 1961
1908 1985
1908 1995
1909 1920
1909 1938
1909 1940
1909 1945
1909 1950
1909 1987
1910 1914
1910 1916
1910 1920
1910 1928
1910 1954
1910 1964
1910 1969
1910 1970
1910 1983
1910 1988
1910 1997
1911 1921
1911 1925
1911 1927
1911 1931
1911 1943
1911 1954
1911 1970
1911 1971
1911 1980
1912 1918
1912 1920
1912 1933
1912 1934
1912 1947
1912 1955
1912 1967
1912 1976
1912 1980
1912 1989
1912 1997
1913 1924
1913 1932
1913 1943
1913 1967
1913 1973
1913 1996
1914 1931
1914 1940
1914 1943
1914 1945
1914 1956
1914 1982
1914 1988
1914 1990
1914 1998
1915 1927
1915 1941
1915 1946
1915 1953
1915 1955
1915 1965
1915 1971
1915 1976
1915 1978
1915 1988
1916 1920
1916 1931
1916 1945
1916 1947
1916 1951
1916 1960
1916 1970
1916 1993
1917 1921
1917 1924
1917 1926
1917 1927
1917 1931
1917 1933
1917 1937
1917 1952
1917 1965
1917 1971
1917 1978
1918 1920
1918 1930
1918 1947
1918 1977
1918 1978
1918 1980
1918 1987
1918 1996
1919 1937
1919 1943
1919 1950
1919 1966
1919 1972
1919 1976
1920 1926
1920 1936
1920 1953
1920 1954
1920 1958
1920 1973
1920 1990
1920 1995
1920 1999
1921 1930
1921 1932
1921 1933
1921 1936
1921 1952
1921 1975
1921 1979
1921 1998
1921 1999
1922 1925
1922 1926
1922 1928
1922 1929
1922 1936
1922 1949
1922 1955
1922 1958
1922 1959
1922 1962
1922 1966
1922 1968
1922 1977
1923 1955
1923 1997
1924 1930
1924 1938
1924 1942
1924 1955
1924 1986
1924 1995
1925 1940
1925 1942
1925 1963
1925 1965
1925 1971
1925 1989
1926 1941
1926 1951
1926 1959
1926 1961
1926 1965
1926 1969
1926 1986
1926 1990
1926 1999
1927 1931
1927 1945
1927 1947
1927 1954
1927 1960
1927 1964
1927 1970
1927 1973
1927 1980
1927 1985
1928 1949
1928 1980
1928 1982
1928 1990
1928 1997
1929 1930
1929 1936
1929 1951
1929 1960
1929 1965
1929 1970
1929 1981
1929 1983
1930 1943
1930 1944
1930 1962
1930 1964
1930 1984
1930 1991
1931 1934
1931 1944
1931 1951
1931 1952
1931 1954
1931 1958
1931 1984
1931 1991
1932 1938
1932 1944
1932 1948
1932 1962
1932 1979
1932 1991
1933 1936
1933 1947
1933 1953
1933 1955
1933 1956
1933 1991
1934 1936
1934 1966
1934 1970
1934 1979
1934 1986
1934 1991
1934 1995
1935 1938
1935 1941
1935 1956
1935 1957
1935 1988
1935 1998
1936 1954
1936 1956
1936 1978
1936 1990
1937 1943
1937 1948
1937 1979
1937 1995
1937 1999
1938 1940
1938 1943
1938 1944
1938 1959
1938 1968
1938 1983
1938 1985
1938 1990
1939 1951
1939 1962
1939 1966
1939 1992
1940 1950
1940 1959
1940 1968
1940 1975
1940 1986
1940 1997
1941 1946
1941 1957
1941 1959
1941 1971
1942 1964
1942 1973
1942 1974
1942 1980
1942 1986
1942 1992
1943 1948
1943 1952
1943 1969
1943 1973
1943 1985
1943 1991
1943 1997
1944 1953
1944 1957
1944 1960
1944 1973
1944 1976
1944 1990
1945 1947
1946 1952
1946 1958
1946 1972
1946 1985
1946 1990
1946 1995
1947 1987
1947 1988
1947 1993
1947 1995
1948 1950
1948 1955
1948 1962
1948 1980
1948 1994
1948 1995
1949 1959
1949 1965
1949 1987
1949 1996
1949 1997
1950 1957
1950 1969
1950 1973
1950 1991
1950 1999
1951 1959
1951 1961
1951 1999
1952 1959
1952 1968
1952 1977
1952 1978
1952 1982
1952 1991
1953 1954
1953 1972
1953 1978
1953 1995
1953 1999
1954 1977
1955 1962
1955 1970
1955 1971
1955 1973
1955 1984
1955 1986
1955 1994
1955 1996
1956 1958
1956 1963
1956 1970
1956 1980
1956 1987
1957 1962
1957 1981
1957 1982
1957 1993
1957 1997
1958 1970
1958 1974
1958 1977
1958 1983
1958 1996
1959 1964
1959 1979
1959 1995
1960 1970
1960 1987
1961 1981
1961 1994
1961 1995
1961 1998
1962 1973
1962 1975
1962 1978
1962 1993
1963 1975
1963 1995
1963 1998
1964 1966
1964 1990
1965 1970
1965 1973
1965 1980
1965 1991
1966 1967
1966 1969
1966 1970
1966 1973
1966 1977
1966 1985
1966 1990
1966 1992
1967 1971
1967 1976
1967 1980
1967 1993
1967 1995
1968 1972
1968 1989
1968 1995
1969 1975
1969 1979
1969 1988
1969 1999
1970 1981
1970 1984
1970 1995
1971 1983
1971 1984
1971 1986
1971 1996
1972 1982
1972 1986
1972 1993
1972 1996
1973 1975
1973 1986
1973 1999
1975 1983
1975 1997
1976 1978
1976 1985
1976 1992
1977 1979
1977 1989
1977 1991
1977 1994
1978 1979
1978 1994
1978 1998
1979 1981
1979 1982
1979 1985
1979 1990
1979 1992
1979 1998
1980 1981
1980 1986
1980 1990
1980 1994
1980 1996
1981 1991
1981 1993
1981 1994
1982 1996
1984 1994
1985 1986
1987 1989
1988 1992
1988 1998
1988 1999
1990 1992
1991 1992
1992 1995
1993 1999
1996 1997