0 16
0 20
0 34
0 38
0 52
0 77
0 96
0 102
0 107
0 110
0 117
0 139
0 163
0 175
0 176
0 181
0 187
0 211
0 215
0 218
0 236
0 251
0 260
0 282
0 287
0 292
0 297
0 298
0 304
0 306
0 319
0 323
0 327
0 349
0 388
0 391
0 395
0 396
0 397
1 18
1 22
1 34
1 38
1 53
1 74
1 85
1 89
1 106
1 110
1 117
1 123
1 150
1 176
1 177
1 195
1 226
1 236
1 251
1 263
1 266
1 268
1 271
1 272
1 286
1 299
1 303
1 309
1 331
1 343
1 345
1 348
1 366
1 387
1 396
1 1574
2 3
2 26
2 44
2 63
2 64
2 73
2 78
2 83
2 113
2 114
2 119
2 125
2 135
2 142
2 150
2 156
2 159
2 162
2 188
2 192
2 194
2 203
2 224
2 227
2 230
2 231
2 239
2 241
2 243
2 248
2 249
2 251
2 252
2 271
2 282
2 289
2 292
2 300
2 306
2 315
2 317
2 326
2 350
2 358
2 364
2 368
2 372
2 378
2 383
2 1454
3 5
3 8
3 16
3 37
3 43
3 45
3 63
3 76
3 78
3 88
3 92
3 109
3 128
3 148
3 155
3 160
3 163
3 192
3 207
3 217
3 234
3 262
3 263
3 281
3 290
3 310
3 313
3 319
3 326
3 329
3 330
3 331
3 336
3 344
3 347
3 357
3 359
3 371
3 387
3 390
3 436
4 7
4 46
4 61
4 69
4 74
4 85
4 90
4 92
4 98
4 103
4 123
4 132
4 154
4 157
4 159
4 168
4 169
4 179
4 188
4 211
4 221
4 224
4 240
4 248
4 252
4 263
4 276
4 284
4 308
4 312
4 323
4 328
4 332
4 333
4 343
4 352
4 361
4 380
4 397
4 1314
5 10
5 18
5 47
5 63
5 65
5 67
5 92
5 109
5 119
5 135
5 147
5 151
5 152
5 183
5 201
5 212
5 217
5 227
5 228
5 231
5 242
5 243
5 251
5 255
5 297
5 306
5 340
5 363
5 371
5 372
5 374
5 393
6 37
6 40
6 42
6 56
6 57
6 77
6 95
6 99
6 110
6 128
6 140
6 143
6 165
6 180
6 181
6 220
6 234
6 254
6 263
6 271
6 304
6 313
6 349
6 355
6 356
6 359
6 360
6 363
6 369
6 373
6 382
6 384
6 593
6 1956
7 12
7 20
7 28
7 31
7 71
7 85
7 100
7 102
7 117
7 122
7 135
7 145
7 154
7 165
7 171
7 177
7 186
7 214
7 231
7 233
7 239
7 241
7 246
7 250
7 263
7 312
7 322
7 338
7 348
7 361
7 367
7 377
7 399
7 1247
8 10
8 15
8 19
8 65
8 79
8 89
8 93
8 110
8 121
8 129
8 139
8 140
8 154
8 163
8 165
8 167
8 170
8 173
8 180
8 198
8 201
8 202
8 206
8 207
8 214
8 221
8 228
8 232
8 253
8 254
8 255
8 263
8 277
8 279
8 283
8 284
8 286
8 289
8 309
8 318
8 332
8 336
8 343
8 348
8 373
8 384
8 393
8 398
9 28
9 60
9 69
9 70
9 91
9 92
9 106
9 116
9 127
9 132
9 134
9 139
9 170
9 171
9 179
9 227
9 231
9 233
9 243
9 258
9 261
9 263
9 295
9 298
9 302
9 307
9 317
9 318
9 332
9 334
9 340
9 342
9 346
9 366
9 370
9 373
9 383
9 391
9 1537
10 20
10 29
10 37
10 51
10 55
10 63
10 65
10 106
10 127
10 135
10 138
10 148
10 154
10 157
10 159
10 164
10 178
10 179
10 181
10 187
10 188
10 211
10 220
10 224
10 258
10 264
10 281
10 289
10 295
10 334
10 346
10 351
10 355
10 370
10 378
10 386
10 388
11 28
11 49
11 55
11 71
11 101
11 124
11 127
11 136
11 181
11 182
11 188
11 194
11 205
11 206
11 207
11 217
11 231
11 234
11 243
11 244
11 252
11 283
11 287
11 330
11 345
11 355
11 368
11 370
11 381
11 385
12 28
12 29
12 62
12 71
12 79
12 84
12 94
12 117
12 132
12 174
12 202
12 213
12 219
12 223
12 234
12 236
12 248
12 272
12 283
12 284
12 297
12 299
12 304
12 344
12 345
12 348
12 350
12 351
12 369
12 378
12 393
12 707
12 879
13 14
13 21
13 26
13 36
13 42
13 53
13 66
13 77
13 78
13 79
13 85
13 86
13 93
13 101
13 148
13 156
13 158
13 169
13 175
13 205
13 207
13 223
13 227
13 238
13 240
13 282
13 285
13 286
13 302
13 310
13 323
13 325
13 329
13 338
13 345
13 348
13 374
13 384
13 393
14 23
14 26
14 27
14 58
14 61
14 85
14 92
14 94
14 110
14 121
14 131
14 132
14 139
14 147
14 160
14 165
14 168
14 172
14 187
14 188
14 196
14 201
14 204
14 205
14 212
14 215
14 229
14 232
14 263
14 283
14 308
14 320
14 326
14 349
14 357
14 392
15 24
15 34
15 48
15 62
15 77
15 79
15 133
15 135
15 137
15 145
15 151
15 157
15 183
15 186
15 187
15 203
15 232
15 240
15 259
15 260
15 262
15 269
15 297
15 299
15 338
15 342
15 345
15 347
15 348
15 379
15 380
15 384
15 398
15 1178
15 1893
16 17
16 48
16 49
16 81
16 106
16 114
16 118
16 126
16 130
16 138
16 145
16 157
16 166
16 182
16 183
16 185
16 194
16 200
16 221
16 242
16 243
16 257
16 272
16 273
16 275
16 287
16 294
16 325
16 337
16 340
16 341
16 354
16 366
16 368
16 374
16 387
17 19
17 30
17 40
17 43
17 49
17 51
17 87
17 94
17 96
17 101
17 106
17 110
17 113
17 122
17 148
17 155
17 164
17 176
17 177
17 189
17 211
17 216
17 226
17 228
17 253
17 269
17 280
17 281
17 301
17 308
17 318
17 348
17 349
17 383
17 385
17 386
17 623
17 859
18 25
18 28
18 49
18 59
18 94
18 96
18 101
18 113
18 125
18 127
18 181
18 187
18 195
18 199
18 203
18 205
18 214
18 215
18 243
18 260
18 261
18 299
18 314
18 327
18 346
18 356
18 374
18 384
18 390
18 392
18 399
18 700
18 1130
19 23
19 27
19 32
19 39
19 46
19 58
19 79
19 131
19 139
19 150
19 200
19 223
19 225
19 231
19 235
19 275
19 284
19 299
19 313
19 314
19 315
19 319
19 322
19 324
19 325
19 378
19 1268
20 37
20 54
20 66
20 77
20 114
20 128
20 142
20 145
20 184
20 187
20 203
20 205
20 210
20 216
20 235
20 237
20 278
20 280
20 281
20 296
20 298
20 300
20 315
20 316
20 323
20 326
20 328
20 336
20 344
20 349
20 353
20 358
20 364
20 373
20 907
21 31
21 39
21 44
21 48
21 54
21 66
21 77
21 83
21 96
21 100
21 121
21 140
21 143
21 153
21 171
21 186
21 220
21 224
21 227
21 241
21 251
21 256
21 261
21 263
21 278
21 300
21 302
21 304
21 310
21 314
21 315
21 320
21 345
21 352
21 357
21 359
21 381
21 391
21 966
21 1376
22 23
22 32
22 33
22 41
22 51
22 53
22 69
22 72
22 76
22 84
22 87
22 96
22 98
22 102
22 112
22 114
22 131
22 145
22 153
22 160
22 161
22 165
22 182
22 185
22 195
22 196
22 209
22 210
22 216
22 226
22 232
22 237
22 248
22 249
22 260
22 264
22 285
22 288
22 291
22 294
22 302
22 308
22 321
22 325
22 349
22 355
22 358
22 362
22 398
22 669
23 27
23 33
23 43
23 53
23 54
23 74
23 77
23 94
23 100
23 107
23 108
23 126
23 146
23 149
23 160
23 175
23 180
23 201
23 205
23 206
23 240
23 257
23 266
23 287
23 311
23 315
23 318
23 320
23 331
23 363
23 378
23 379
23 383
23 391
23 680
23 1443
24 44
24 53
24 54
24 57
24 63
24 74
24 83
24 93
24 111
24 147
24 170
24 174
24 177
24 184
24 202
24 208
24 212
24 220
24 231
24 253
24 287
24 312
24 329
24 331
24 335
24 337
24 338
24 362
24 372
24 375
24 1788
25 37
25 42
25 48
25 52
25 70
25 78
25 88
25 94
25 96
25 97
25 110
25 114
25 127
25 129
25 152
25 155
25 193
25 194
25 203
25 215
25 216
25 223
25 225
25 252
25 256
25 257
25 266
25 268
25 283
25 286
25 295
25 301
25 307
25 319
25 324
25 327
25 329
25 330
25 333
25 335
25 336
25 365
25 370
25 384
25 399
26 43
26 45
26 54
26 63
26 80
26 90
26 100
26 105
26 117
26 127
26 134
26 151
26 157
26 160
26 166
26 179
26 183
26 201
26 208
26 222
26 231
26 253
26 255
26 272
26 273
26 293
26 304
26 310
26 312
26 329
26 344
26 349
26 352
26 354
26 361
26 370
26 371
26 374
26 381
26 387
26 395
26 691
26 1572
27 33
27 80
27 86
27 117
27 124
27 136
27 137
27 138
27 146
27 160
27 162
27 173
27 174
27 175
27 202
27 204
27 207
27 209
27 211
27 231
27 242
27 244
27 246
27 253
27 262
27 272
27 276
27 284
27 293
27 306
27 318
27 323
27 324
27 331
27 345
27 350
27 355
27 366
27 372
27 379
27 381
27 384
27 385
27 398
27 991
27 1570
28 32
28 41
28 45
28 48
28 57
28 59
28 68
28 73
28 91
28 103
28 109
28 138
28 151
28 155
28 156
28 194
28 231
28 233
28 240
28 250
28 280
28 288
28 299
28 300
28 312
28 335
28 381
28 383
28 393
28 398
28 437
28 1330
28 1531
28 1547
29 35
29 55
29 60
29 85
29 88
29 95
29 99
29 129
29 149
29 160
29 221
29 256
29 265
29 279
29 294
29 300
29 308
29 324
29 326
29 337
29 346
29 355
29 384
29 1726
29 1993
30 38
30 54
30 65
30 72
30 75
30 84
30 85
30 88
30 90
30 99
30 126
30 129
30 148
30 150
30 153
30 168
30 171
30 195
30 215
30 228
30 246
30 260
30 271
30 287
30 307
30 338
30 350
30 361
30 377
30 381
30 384
30 389
30 391
30 1652
31 74
31 79
31 80
31 82
31 87
31 90
31 93
31 98
31 103
31 134
31 137
31 145
31 160
31 174
31 181
31 184
31 189
31 190
31 195
31 201
31 206
31 220
31 224
31 228
31 238
31 241
31 243
31 253
31 254
31 260
31 277
31 278
31 279
31 287
31 295
31 299
31 301
31 313
31 316
31 325
31 326
31 327
31 328
31 335
31 337
31 340
31 342
31 355
31 362
31 365
31 374
31 389
31 390
31 394
31 395
31 398
31 399
31 1349
32 33
32 44
32 53
32 57
32 68
32 78
32 100
32 101
32 126
32 127
32 129
32 131
32 141
32 146
32 150
32 219
32 220
32 238
32 246
32 259
32 268
32 271
32 281
32 284
32 293
32 295
32 309
32 314
32 315
32 329
32 330
32 344
32 346
32 354
32 371
32 374
32 385
32 390
32 616
32 973
33 76
33 85
33 94
33 124
33 125
33 131
33 134
33 153
33 166
33 168
33 170
33 189
33 192
33 235
33 257
33 258
33 266
33 268
33 274
33 281
33 287
33 288
33 294
33 301
33 325
33 339
33 356
33 389
33 392
33 393
34 37
34 42
34 47
34 48
34 53
34 57
34 58
34 60
34 62
34 65
34 70
34 72
34 75
34 81
34 111
34 116
34 126
34 135
34 142
34 143
34 156
34 157
34 160
34 167
34 169
34 180
34 182
34 197
34 199
34 207
34 218
34 224
34 244
34 281
34 285
34 298
34 300
34 304
34 337
34 341
34 350
34 369
34 387
35 46
35 58
35 73
35 95
35 110
35 119
35 120
35 129
35 132
35 145
35 166
35 189
35 193
35 203
35 206
35 221
35 224
35 225
35 228
35 243
35 249
35 259
35 262
35 263
35 264
35 273
35 275
35 300
35 303
35 306
35 307
35 310
35 315
35 317
35 326
35 328
35 333
35 346
35 347
35 352
35 360
35 370
35 380
36 52
36 56
36 59
36 61
36 64
36 72
36 81
36 85
36 102
36 124
36 136
36 139
36 148
36 150
36 165
36 187
36 189
36 194
36 205
36 206
36 209
36 217
36 223
36 230
36 232
36 241
36 248
36 256
36 260
36 269
36 274
36 279
36 282
36 323
36 336
36 348
36 349
36 361
36 382
36 384
36 389
36 934
36 1067
36 1445
36 1831
37 41
37 44
37 50
37 51
37 58
37 61
37 62
37 64
37 88
37 115
37 117
37 124
37 130
37 136
37 143
37 149
37 165
37 175
37 181
37 184
37 190
37 211
37 223
37 242
37 247
37 251
37 264
37 270
37 274
37 277
37 297
37 302
37 314
37 315
37 323
37 328
37 333
37 342
37 352
37 371
37 373
37 376
37 379
37 382
37 385
37 390
37 394
37 1620
37 1982
38 70
38 71
38 78
38 98
38 108
38 114
38 115
38 116
38 151
38 153
38 174
38 189
38 190
38 192
38 194
38 197
38 207
38 217
38 232
38 236
38 239
38 249
38 261
38 284
38 290
38 298
38 304
38 316
38 334
38 340
38 345
38 349
38 354
38 378
38 1842
39 47
39 52
39 96
39 101
39 115
39 120
39 124
39 132
39 142
39 156
39 159
39 165
39 181
39 184
39 185
39 194
39 201
39 241
39 250
39 266
39 269
39 272
39 276
39 280
39 281
39 286
39 288
39 292
39 293
39 295
39 296
39 308
39 311
39 331
39 345
39 354
39 359
39 377
39 384
39 386
39 391
39 392
39 394
39 398
39 637
39 890
39 1013
39 1908
40 79
40 89
40 90
40 94
40 98
40 100
40 124
40 131
40 136
40 140
40 145
40 148
40 159
40 163
40 165
40 166
40 177
40 180
40 185
40 194
40 201
40 203
40 207
40 217
40 243
40 248
40 249
40 250
40 254
40 283
40 284
40 285
40 299
40 305
40 321
40 329
40 334
40 352
40 357
40 392
40 395
40 1806
41 73
41 99
41 107
41 116
41 124
41 139
41 149
41 153
41 155
41 156
41 166
41 169
41 179
41 182
41 186
41 188
41 202
41 208
41 217
41 218
41 219
41 228
41 232
41 235
41 264
41 267
41 270
41 311
41 313
41 314
41 326
41 331
41 332
41 335
41 346
41 352
41 353
41 369
41 388
41 423
42 52
42 71
42 88
42 105
42 118
42 130
42 139
42 143
42 166
42 178
42 194
42 196
42 204
42 211
42 214
42 217
42 219
42 230
42 241
42 251
42 260
42 264
42 266
42 288
42 301
42 303
42 305
42 344
42 347
42 354
42 366
42 369
42 370
42 399
42 828
43 48
43 51
43 53
43 70
43 86
43 96
43 97
43 114
43 122
43 139
43 142
43 163
43 180
43 186
43 208
43 218
43 225
43 234
43 244
43 246
43 258
43 260
43 264
43 267
43 282
43 293
43 297
43 299
43 303
43 315
43 321
43 340
43 342
43 350
43 353
43 359
43 381
43 385
43 386
43 396
43 399
44 47
44 68
44 70
44 71
44 78
44 90
44 91
44 115
44 120
44 135
44 141
44 151
44 162
44 183
44 184
44 212
44 245
44 249
44 267
44 274
44 282
44 318
44 323
44 335
44 343
44 345
44 347
44 355
44 358
44 372
44 374
44 389
44 1563
45 51
45 54
45 60
45 82
45 93
45 95
45 98
45 101
45 102
45 118
45 120
45 141
45 145
45 148
45 153
45 166
45 173
45 181
45 193
45 202
45 224
45 258
45 269
45 272
45 282
45 285
45 290
45 298
45 311
45 335
45 353
45 364
45 372
45 373
45 377
45 1045
45 1215
46 74
46 81
46 87
46 90
46 92
46 129
46 139
46 140
46 141
46 142
46 150
46 159
46 160
46 161
46 184
46 217
46 225
46 228
46 232
46 236
46 246
46 248
46 250
46 259
46 264
46 278
46 282
46 295
46 304
46 309
46 317
46 321
46 326
46 331
46 347
46 377
46 381
46 391
46 392
46 399
46 532
46 967
46 1614
46 1771
47 53
47 60
47 85
47 86
47 102
47 115
47 117
47 121
47 132
47 133
47 142
47 153
47 161
47 171
47 176
47 198
47 206
47 208
47 232
47 238
47 240
47 255
47 261
47 272
47 297
47 308
47 342
47 353
47 357
47 373
47 380
47 381
47 387
47 1323
47 1810
48 50
48 63
48 79
48 87
48 91
48 119
48 125
48 160
48 166
48 170
48 180
48 188
48 195
48 208
48 235
48 239
48 251
48 256
48 280
48 283
48 287
48 303
48 304
48 309
48 318
48 325
48 359
48 363
48 364
48 368
48 373
48 374
48 378
48 382
48 390
48 392
48 395
48 893
48 1240
48 1457
49 54
49 59
49 71
49 76
49 94
49 103
49 141
49 143
49 144
49 148
49 156
49 165
49 187
49 199
49 202
49 206
49 220
49 224
49 240
49 245
49 252
49 268
49 271
49 286
49 298
49 300
49 303
49 310
49 314
49 335
49 339
49 341
49 366
49 369
49 377
49 384
49 1537
49 1837
50 69
50 93
50 94
50 105
50 118
50 119
50 131
50 147
50 162
50 181
50 185
50 189
50 201
50 202
50 206
50 245
50 247
50 258
50 288
50 292
50 302
50 341
50 343
50 345
50 350
50 357
50 369
50 370
50 390
50 394
50 657
50 1870
51 55
51 64
51 65
51 67
51 73
51 78
51 84
51 89
51 95
51 96
51 106
51 109
51 112
51 113
51 116
51 117
51 121
51 124
51 127
51 144
51 158
51 163
51 166
51 168
51 195
51 197
51 199
51 201
51 202
51 205
51 236
51 237
51 255
51 261
51 286
51 310
51 321
51 324
51 348
51 350
51 373
51 380
51 391
52 59
52 64
52 89
52 112
52 127
52 129
52 133
52 136
52 146
52 153
52 162
52 170
52 174
52 182
52 183
52 185
52 187
52 204
52 229
52 248
52 261
52 262
52 266
52 277
52 292
52 295
52 313
52 316
52 325
52 341
52 354
52 355
52 359
52 363
52 371
52 375
52 376
52 393
52 396
52 495
52 1081
53 65
53 75
53 76
53 80
53 81
53 91
53 93
53 97
53 99
53 104
53 107
53 114
53 126
53 148
53 156
53 157
53 190
53 195
53 199
53 201
53 211
53 224
53 227
53 234
53 236
53 257
53 289
53 291
53 296
53 299
53 314
53 318
53 321
53 325
53 331
53 341
53 347
53 359
53 395
53 1245
53 1264
54 60
54 61
54 63
54 70
54 77
54 79
54 97
54 102
54 107
54 111
54 113
54 123
54 134
54 143
54 149
54 156
54 163
54 167
54 170
54 171
54 177
54 187
54 189
54 215
54 221
54 224
54 230
54 232
54 237
54 275
54 276
54 289
54 290
54 300
54 310
54 322
54 324
54 332
54 342
54 343
54 351
54 352
54 384
54 388
54 395
54 396
55 66
55 67
55 70
55 71
55 74
55 88
55 105
55 106
55 107
55 112
55 119
55 145
55 154
55 156
55 183
55 190
55 194
55 202
55 214
55 220
55 235
55 239
55 249
55 265
55 276
55 279
55 298
55 310
55 313
55 320
55 325
55 328
55 333
55 334
55 349
55 365
55 390
55 395
55 396
55 399
56 60
56 69
56 70
56 72
56 73
56 76
56 85
56 86
56 103
56 105
56 109
56 110
56 114
56 119
56 131
56 138
56 157
56 163
56 166
56 175
56 208
56 215
56 236
56 242
56 255
56 276
56 281
56 287
56 297
56 300
56 308
56 318
56 333
56 340
56 349
56 384
56 393
56 399
56 1221
56 1480
56 1496
57 67
57 68
57 72
57 94
57 100
57 101
57 110
57 117
57 124
57 162
57 175
57 177
57 185
57 197
57 204
57 242
57 245
57 251
57 252
57 257
57 258
57 261
57 264
57 276
57 289
57 306
57 324
57 332
57 333
57 340
57 347
57 353
57 367
57 375
57 383
57 396
58 63
58 100
58 104
58 113
58 117
58 129
58 137
58 141
58 143
58 150
58 162
58 185
58 196
58 197
58 198
58 216
58 225
58 227
58 236
58 244
58 245
58 261
58 263
58 264
58 265
58 268
58 273
58 276
58 281
58 283
58 284
58 313
58 325
58 333
58 339
58 350
58 365
58 368
58 369
58 372
58 381
58 388
58 393
58 396
59 72
59 131
59 138
59 144
59 147
59 157
59 196
59 243
59 245
59 250
59 254
59 259
59 269
59 287
59 293
59 304
59 312
59 319
59 338
59 339
59 349
59 357
59 365
59 385
59 388
60 61
60 65
60 85
60 86
60 90
60 100
60 101
60 104
60 105
60 109
60 116
60 141
60 166
60 175
60 185
60 199
60 210
60 223
60 231
60 235
60 247
60 249
60 254
60 255
60 276
60 282
60 288
60 289
60 319
60 343
60 352
60 371
60 380
60 383
60 388
60 391
60 1475
60 1569
61 63
61 65
61 98
61 110
61 129
61 132
61 137
61 146
61 152
61 154
61 161
61 165
61 175
61 183
61 201
61 206
61 221
61 229
61 244
61 258
61 271
61 288
61 309
61 325
61 330
61 337
61 365
61 374
61 380
61 387
61 416
61 1454
61 1805
62 84
62 85
62 92
62 96
62 137
62 138
62 142
62 143
62 174
62 197
62 225
62 244
62 247
62 250
62 254
62 262
62 268
62 298
62 300
62 303
62 307
62 315
62 334
62 336
62 343
62 344
62 350
62 351
62 358
62 360
62 366
62 376
63 67
63 80
63 81
63 86
63 99
63 101
63 102
63 109
63 113
63 116
63 119
63 130
63 157
63 158
63 159
63 166
63 177
63 184
63 189
63 197
63 208
63 210
63 212
63 216
63 259
63 276
63 279
63 282
63 286
63 287
63 319
63 353
63 356
63 366
63 369
63 375
63 395
63 398
64 67
64 68
64 69
64 72
64 87
64 89
64 91
64 93
64 96
64 98
64 107
64 113
64 123
64 142
64 185
64 187
64 210
64 227
64 243
64 253
64 276
64 279
64 291
64 293
64 331
64 347
64 366
64 369
64 373
64 374
64 375
64 382
64 392
64 398
64 1098
64 1521
65 80
65 106
65 109
65 119
65 147
65 150
65 152
65 159
65 165
65 187
65 195
65 210
65 214
65 218
65 221
65 223
65 226
65 228
65 252
65 253
65 275
65 276
65 287
65 290
65 295
65 310
65 316
65 323
65 324
65 354
65 381
65 384
65 388
65 399
65 475
65 1646
66 71
66 73
66 81
66 82
66 94
66 95
66 97
66 109
66 135
66 157
66 175
66 193
66 194
66 198
66 202
66 211
66 213
66 214
66 215
66 220
66 225
66 227
66 236
66 242
66 279
66 301
66 303
66 306
66 339
66 363
66 370
66 386
66 1156
66 1665
67 77
67 89
67 96
67 97
67 100
67 105
67 114
67 115
67 122
67 140
67 151
67 155
67 159
67 160
67 162
67 168
67 202
67 215
67 225
67 257
67 267
67 276
67 286
67 289
67 292
67 293
67 303
67 310
67 311
67 329
67 335
67 338
67 340
67 347
67 361
67 368
67 389
67 396
68 91
68 136
68 144
68 152
68 161
68 163
68 168
68 172
68 174
68 179
68 187
68 191
68 229
68 246
68 250
68 254
68 259
68 263
68 269
68 321
68 357
68 369
68 379
68 381
68 389
68 390
68 984
68 1249
68 1815
69 77
69 88
69 104
69 112
69 121
69 125
69 126
69 127
69 129
69 159
69 167
69 171
69 182
69 184
69 193
69 195
69 200
69 211
69 226
69 241
69 246
69 248
69 265
69 286
69 292
69 308
69 311
69 312
69 314
69 333
69 348
69 359
69 362
69 366
69 381
69 384
69 386
69 388
70 82
70 88
70 111
70 118
70 149
70 187
70 196
70 220
70 224
70 233
70 238
70 249
70 253
70 275
70 277
70 278
70 279
70 290
70 297
70 328
70 329
70 341
70 348
70 362
70 368
70 370
70 381
70 382
71 83
71 95
71 105
71 112
71 113
71 118
71 120
71 121
71 128
71 158
71 162
71 175
71 217
71 232
71 234
71 241
71 246
71 252
71 259
71 262
71 292
71 297
71 307
71 310
71 313
71 341
71 353
71 367
71 374
71 380
71 387
71 388
71 436
71 601
71 1183
72 84
72 86
72 88
72 91
72 93
72 106
72 113
72 119
72 122
72 130
72 154
72 162
72 165
72 175
72 176
72 184
72 190
72 193
72 196
72 213
72 215
72 221
72 276
72 277
72 279
72 293
72 294
72 295
72 302
72 303
72 332
72 336
72 361
72 365
72 382
72 383
72 394
72 816
72 1692
73 89
73 99
73 111
73 113
73 135
73 139
73 142
73 164
73 174
73 175
73 201
73 209
73 214
73 217
73 231
73 245
73 251
73 259
73 264
73 268
73 282
73 287
73 288
73 294
73 303
73 308
73 310
73 313
73 323
73 325
73 329
73 334
73 359
73 363
73 393
73 396
73 1605
74 84
74 109
74 133
74 146
74 151
74 158
74 161
74 171
74 175
74 177
74 184
74 185
74 188
74 196
74 197
74 199
74 201
74 203
74 211
74 218
74 222
74 232
74 233
74 234
74 236
74 238
74 247
74 248
74 249
74 259
74 274
74 300
74 315
74 325
74 341
74 344
74 350
74 360
74 370
74 373
74 386
74 1138
74 1503
74 1702
75 78
75 89
75 101
75 107
75 115
75 118
75 123
75 129
75 144
75 152
75 155
75 173
75 180
75 188
75 198
75 200
75 209
75 212
75 217
75 248
75 250
75 264
75 266
75 278
75 279
75 283
75 291
75 311
75 318
75 323
75 324
75 352
75 355
75 365
75 378
75 382
75 383
75 390
75 391
75 394
76 98
76 102
76 107
76 115
76 122
76 139
76 148
76 170
76 178
76 180
76 181
76 186
76 189
76 196
76 219
76 263
76 283
76 293
76 296
76 305
76 309
76 311
76 321
76 336
76 340
76 353
76 360
76 376
76 384
77 101
77 108
77 114
77 117
77 122
77 129
77 132
77 160
77 174
77 205
77 243
77 244
77 246
77 249
77 266
77 272
77 274
77 275
77 281
77 284
77 294
77 296
77 331
77 335
77 354
77 372
77 382
77 391
78 86
78 94
78 99
78 103
78 111
78 115
78 144
78 147
78 165
78 176
78 179
78 180
78 202
78 219
78 220
78 230
78 232
78 247
78 249
78 254
78 260
78 265
78 266
78 276
78 279
78 296
78 299
78 301
78 317
78 326
78 334
78 367
78 368
78 387
78 397
78 991
79 103
79 134
79 142
79 151
79 164
79 165
79 172
79 208
79 217
79 227
79 249
79 272
79 275
79 297
79 311
79 315
79 341
79 343
79 344
79 348
79 361
79 376
79 384
79 390
79 399
80 83
80 96
80 99
80 102
80 117
80 120
80 135
80 137
80 140
80 150
80 154
80 159
80 181
80 185
80 189
80 221
80 228
80 233
80 245
80 252
80 261
80 266
80 291
80 319
80 320
80 341
80 343
80 353
80 374
80 375
80 379
80 391
80 879
80 1036
81 83
81 84
81 95
81 108
81 120
81 126
81 134
81 164
81 169
81 178
81 206
81 232
81 253
81 261
81 277
81 279
81 282
81 291
81 295
81 298
81 310
81 311
81 321
81 328
81 376
81 380
81 394
82 83
82 94
82 103
82 115
82 123
82 136
82 143
82 153
82 157
82 181
82 182
82 189
82 191
82 205
82 207
82 212
82 222
82 224
82 235
82 238
82 245
82 248
82 255
82 270
82 271
82 273
82 274
82 279
82 285
82 286
82 298
82 321
82 322
82 324
82 350
82 351
82 359
82 361
82 366
82 374
82 398
82 474
82 680
82 1030
82 1111
82 1624
83 88
83 89
83 98
83 113
83 116
83 117
83 130
83 138
83 155
83 156
83 161
83 166
83 177
83 179
83 190
83 197
83 199
83 205
83 208
83 215
83 224
83 247
83 250
83 272
83 278
83 283
83 287
83 301
83 318
83 320
83 330
83 334
83 337
83 355
83 372
83 381
83 394
83 1058
84 90
84 91
84 95
84 115
84 118
84 126
84 131
84 144
84 167
84 172
84 174
84 177
84 179
84 202
84 216
84 217
84 221
84 226
84 230
84 260
84 266
84 267
84 270
84 271
84 273
84 292
84 303
84 304
84 342
84 344
84 353
84 360
84 364
84 376
84 382
84 385
84 386
84 578
84 1995
85 91
85 100
85 103
85 105
85 116
85 121
85 126
85 146
85 169
85 170
85 187
85 210
85 232
85 234
85 236
85 242
85 243
85 251
85 252
85 266
85 272
85 297
85 305
85 314
85 347
85 365
85 369
85 397
85 991
85 1884
86 89
86 98
86 101
86 106
86 112
86 123
86 130
86 141
86 145
86 158
86 162
86 163
86 172
86 175
86 177
86 191
86 217
86 233
86 239
86 240
86 249
86 251
86 254
86 261
86 276
86 286
86 294
86 298
86 300
86 303
86 307
86 311
86 335
86 338
86 359
86 366
86 378
86 383
86 389
86 391
86 406
86 738
86 927
87 90
87 97
87 103
87 110
87 116
87 132
87 149
87 155
87 161
87 180
87 201
87 203
87 205
87 214
87 229
87 231
87 248
87 256
87 259
87 268
87 318
87 322
87 339
87 342
87 346
87 350
87 353
87 355
87 368
87 378
87 392
87 393
87 395
87 999
88 103
88 120
88 126
88 131
88 132
88 133
88 137
88 140
88 164
88 199
88 215
88 216
88 217
88 238
88 244
88 245
88 258
88 277
88 283
88 291
88 303
88 311
88 330
88 332
88 349
88 376
89 104
89 116
89 134
89 135
89 138
89 142
89 156
89 159
89 162
89 163
89 171
89 194
89 197
89 206
89 218
89 262
89 269
89 277
89 290
89 295
89 299
89 303
89 310
89 311
89 318
89 319
89 325
89 331
89 357
89 361
89 370
89 376
89 390
89 392
89 397
89 1402
89 1860
90 101
90 102
90 119
90 120
90 169
90 177
90 178
90 205
90 211
90 227
90 230
90 246
90 251
90 254
90 265
90 269
90 277
90 286
90 296
90 297
90 299
90 302
90 321
90 325
90 329
90 338
90 339
90 355
90 379
90 390
90 1123
91 101
91 107
91 119
91 125
91 160
91 166
91 172
91 180
91 181
91 191
91 197
91 199
91 224
91 235
91 263
91 284
91 299
91 303
91 308
91 325
91 327
91 342
91 350
91 357
91 362
91 366
91 373
91 396
91 549
91 1752
92 94
92 99
92 113
92 117
92 167
92 190
92 196
92 207
92 220
92 221
92 233
92 236
92 244
92 245
92 254
92 267
92 268
92 282
92 284
92 291
92 295
92 309
92 325
92 335
92 384
93 105
93 109
93 111
93 115
93 134
93 144
93 153
93 154
93 159
93 180
93 182
93 196
93 197
93 212
93 213
93 215
93 224
93 231
93 237
93 256
93 265
93 278
93 292
93 302
93 311
93 316
93 326
93 327
93 333
93 334
93 337
93 340
93 352
93 356
93 378
93 1095
93 1481
93 1724
94 99
94 107
94 109
94 114
94 135
94 143
94 147
94 156
94 191
94 199
94 233
94 235
94 240
94 254
94 262
94 272
94 284
94 298
94 301
94 309
94 310
94 320
94 328
94 354
94 357
94 358
94 373
94 382
94 1638
94 1659
95 98
95 110
95 113
95 126
95 127
95 128
95 132
95 134
95 155
95 163
95 174
95 180
95 197
95 203
95 214
95 254
95 259
95 264
95 285
95 288
95 292
95 342
95 363
95 369
95 379
96 100
96 104
96 115
96 117
96 128
96 133
96 141
96 156
96 159
96 169
96 170
96 174
96 181
96 191
96 193
96 198
96 206
96 207
96 217
96 219
96 222
96 230
96 238
96 240
96 251
96 252
96 257
96 267
96 299
96 307
96 334
96 347
96 357
96 362
96 366
96 385
96 396
96 398
96 900
96 1661
97 98
97 99
97 101
97 115
97 123
97 127
97 135
97 138
97 155
97 166
97 168
97 174
97 183
97 184
97 201
97 249
97 261
97 267
97 280
97 298
97 302
97 306
97 323
97 329
97 332
97 354
97 360
97 367
97 375
97 929
97 1526
97 1632
98 103
98 110
98 125
98 126
98 128
98 130
98 137
98 140
98 146
98 148
98 150
98 153
98 174
98 182
98 187
98 188
98 196
98 197
98 207
98 221
98 224
98 231
98 250
98 255
98 263
98 269
98 287
98 294
98 299
98 307
98 314
98 317
98 320
98 336
98 342
98 343
98 351
98 387
98 396
98 398
98 757
98 1972
99 105
99 106
99 107
99 109
99 117
99 125
99 133
99 134
99 137
99 142
99 152
99 163
99 178
99 186
99 192
99 202
99 213
99 225
99 227
99 242
99 243
99 250
99 252
99 260
99 274
99 285
99 293
99 300
99 308
99 310
99 316
99 327
99 331
99 338
99 352
99 359
99 360
99 384
99 613
100 102
100 108
100 132
100 144
100 156
100 163
100 166
100 174
100 207
100 212
100 215
100 247
100 254
100 263
100 278
100 294
100 313
100 319
100 343
100 348
100 381
100 397
100 1294
101 123
101 131
101 152
101 171
101 181
101 194
101 203
101 205
101 221
101 226
101 233
101 249
101 252
101 264
101 273
101 286
101 290
101 305
101 324
101 328
101 341
101 349
101 351
101 363
101 377
101 386
101 387
101 388
101 394
102 112
102 113
102 114
102 129
102 150
102 157
102 164
102 173
102 181
102 183
102 187
102 197
102 201
102 207
102 223
102 226
102 230
102 236
102 241
102 243
102 268
102 272
102 276
102 317
102 321
102 330
102 338
102 341
102 349
102 353
102 355
102 358
102 363
102 368
102 374
102 385
102 388
102 390
102 392
102 1522
102 1966
103 107
103 109
103 116
103 120
103 127
103 153
103 156
103 192
103 196
103 210
103 217
103 221
103 235
103 238
103 240
103 244
103 259
103 280
103 282
103 297
103 312
103 319
103 325
103 330
103 338
103 343
103 345
103 346
103 349
103 361
103 362
103 370
103 384
104 114
104 120
104 124
104 137
104 145
104 147
104 152
104 167
104 168
104 169
104 195
104 202
104 225
104 227
104 229
104 231
104 240
104 241
104 256
104 259
104 266
104 285
104 293
104 300
104 306
104 328
104 344
104 357
104 367
104 373
104 377
104 390
104 396
104 399
104 1288
104 1403
105 110
105 149
105 153
105 161
105 168
105 184
105 195
105 232
105 259
105 263
105 265
105 270
105 271
105 276
105 291
105 304
105 312
105 316
105 317
105 321
105 326
105 330
105 343
105 353
105 361
105 364
105 368
105 381
105 996
105 1897
106 118
106 136
106 137
106 153
106 165
106 168
106 185
106 215
106 226
106 235
106 241
106 249
106 261
106 297
106 317
106 344
106 348
106 358
106 377
106 398
106 399
106 580
106 744
106 1246
106 1282
106 1719
106 1870
107 118
107 130
107 139
107 163
107 164
107 172
107 190
107 197
107 199
107 202
107 212
107 222
107 235
107 238
107 262
107 285
107 297
107 302
107 332
107 333
107 343
107 347
107 354
107 369
107 374
107 389
107 391
107 833
107 1248
107 1591
108 113
108 132
108 133
108 149
108 156
108 159
108 167
108 174
108 184
108 193
108 204
108 206
108 208
108 209
108 214
108 219
108 226
108 228
108 229
108 234
108 248
108 264
108 271
108 285
108 316
108 333
108 343
108 344
108 347
108 348
108 351
108 355
108 364
108 372
108 376
108 379
108 384
108 394
109 114
109 135
109 153
109 162
109 165
109 169
109 180
109 193
109 201
109 204
109 211
109 249
109 267
109 273
109 307
109 311
109 314
109 318
109 319
109 334
109 338
109 366
109 376
109 379
109 383
109 492
109 679
109 1398
110 114
110 115
110 120
110 137
110 144
110 150
110 159
110 167
110 178
110 194
110 209
110 231
110 235
110 237
110 239
110 246
110 258
110 263
110 264
110 268
110 275
110 282
110 323
110 326
110 338
110 348
110 352
110 354
110 365
110 370
110 375
110 378
110 389
110 1479
111 116
111 124
111 142
111 165
111 168
111 170
111 200
111 208
111 216
111 220
111 233
111 235
111 236
111 257
111 279
111 281
111 282
111 285
111 298
111 307
111 324
111 337
111 349
111 364
111 367
111 395
111 396
111 399
111 495
111 868
112 122
112 128
112 136
112 141
112 147
112 151
112 170
112 179
112 234
112 245
112 255
112 257
112 259
112 274
112 286
112 289
112 299
112 300
112 313
112 316
112 320
112 324
112 342
112 349
112 354
112 357
112 377
112 394
112 1035
112 1660
113 129
113 140
113 146
113 150
113 160
113 168
113 170
113 172
113 199
113 208
113 210
113 222
113 226
113 229
113 232
113 238
113 250
113 261
113 266
113 299
113 301
113 326
113 327
113 337
113 353
113 361
113 373
113 378
113 382
113 383
113 388
113 399
113 573
114 126
114 131
114 132
114 145
114 156
114 175
114 195
114 210
114 217
114 243
114 252
114 267
114 268
114 280
114 287
114 301
114 306
114 325
114 337
114 341
114 342
114 377
114 1341
114 1948
115 152
115 169
115 189
115 198
115 209
115 223
115 224
115 228
115 236
115 305
115 311
115 315
115 324
115 364
115 370
115 1502
115 1751
116 122
116 135
116 137
116 143
116 148
116 155
116 188
116 212
116 218
116 239
116 242
116 247
116 266
116 281
116 286
116 291
116 300
116 301
116 319
116 320
116 322
116 336
116 339
116 368
116 392
116 465
116 1878
117 122
117 129
117 138
117 154
117 163
117 167
117 175
117 176
117 180
117 184
117 201
117 204
117 205
117 246
117 250
117 259
117 268
117 276
117 285
117 297
117 302
117 323
117 396
118 119
118 123
118 136
118 138
118 140
118 143
118 149
118 157
118 159
118 182
118 198
118 200
118 205
118 216
118 226
118 230
118 241
118 251
118 259
118 263
118 267
118 269
118 320
118 322
118 337
118 342
118 343
118 348
118 373
118 375
118 376
118 382
118 396
118 874
118 1000
119 143
119 145
119 159
119 180
119 207
119 245
119 260
119 261
119 288
119 305
119 323
119 326
119 333
119 343
119 350
119 375
119 391
119 823
120 134
120 142
120 154
120 158
120 159
120 167
120 168
120 170
120 173
120 190
120 206
120 207
120 209
120 225
120 229
120 262
120 267
120 274
120 286
120 289
120 295
120 297
120 304
120 326
120 327
120 340
120 391
120 854
121 123
121 126
121 135
121 150
121 172
121 186
121 188
121 207
121 212
121 213
121 219
121 235
121 236
121 245
121 255
121 271
121 290
121 316
121 323
121 329
121 367
121 384
121 385
121 390
121 396
121 397
122 125
122 127
122 131
122 136
122 144
122 150
122 152
122 154
122 166
122 168
122 169
122 174
122 199
122 204
122 223
122 236
122 257
122 262
122 319
122 320
122 321
122 325
122 328
122 335
122 341
122 350
122 367
122 376
122 377
122 390
122 391
122 395
122 397
123 134
123 142
123 145
123 148
123 152
123 162
123 164
123 182
123 184
123 227
123 240
123 247
123 260
123 286
123 288
123 303
123 310
123 324
123 327
123 344
123 348
123 377
123 379
123 383
123 391
123 399
123 759
123 785
123 1702
124 141
124 149
124 158
124 162
124 215
124 216
124 232
124 245
124 260
124 261
124 266
124 278
124 298
124 300
124 301
124 308
124 318
124 328
124 355
124 373
124 382
125 136
125 141
125 155
125 156
125 190
125 195
125 214
125 254
125 261
125 271
125 274
125 283
125 314
125 333
125 343
125 345
125 348
125 359
125 368
125 386
125 388
125 397
126 131
126 135
126 140
126 146
126 163
126 165
126 167
126 181
126 182
126 187
126 209
126 219
126 247
126 283
126 290
126 293
126 322
126 342
126 349
126 350
126 354
126 368
126 382
126 385
126 392
126 977
126 1117
126 1584
127 130
127 145
127 152
127 156
127 164
127 172
127 191
127 198
127 199
127 218
127 224
127 242
127 244
127 262
127 269
127 270
127 285
127 290
127 296
127 309
127 323
127 341
127 343
127 364
127 371
127 372
127 383
127 393
127 398
127 399
127 445
128 131
128 159
128 170
128 173
128 178
128 182
128 186
128 195
128 198
128 215
128 241
128 246
128 272
128 287
128 321
128 350
128 355
128 368
128 371
128 374
128 375
128 391
129 142
129 167
129 173
129 209
129 213
129 229
129 255
129 270
129 288
129 293
129 300
129 301
129 312
129 326
129 336
129 339
129 343
129 355
129 360
129 361
129 363
129 365
129 378
129 381
129 386
129 391
129 700
129 1873
130 134
130 135
130 142
130 145
130 156
130 164
130 176
130 185
130 206
130 215
130 216
130 219
130 228
130 242
130 265
130 275
130 277
130 284
130 303
130 309
130 314
130 318
130 322
130 326
130 329
130 335
130 360
130 369
130 381
130 387
130 391
130 1495
131 138
131 139
131 149
131 165
131 171
131 175
131 189
131 199
131 223
131 239
131 241
131 242
131 251
131 253
131 279
131 290
131 306
131 327
131 369
131 390
131 391
131 392
131 933
131 1021
132 136
132 146
132 160
132 166
132 170
132 175
132 180
132 188
132 200
132 231
132 232
132 233
132 239
132 240
132 243
132 245
132 249
132 273
132 276
132 287
132 314
132 315
132 322
132 328
132 331
132 338
132 355
132 372
132 382
132 391
132 395
133 145
133 152
133 165
133 177
133 183
133 214
133 215
133 219
133 222
133 224
133 231
133 233
133 239
133 243
133 245
133 247
133 254
133 258
133 261
133 264
133 280
133 284
133 290
133 316
133 332
133 341
133 362
133 377
133 582
133 657
133 900
134 135
134 150
134 152
134 164
134 166
134 169
134 170
134 209
134 212
134 225
134 230
134 231
134 256
134 266
134 268
134 286
134 292
134 295
134 298
134 304
134 309
134 312
134 324
134 342
134 366
134 380
134 388
134 392
134 397
134 399
135 157
135 160
135 162
135 169
135 176
135 177
135 182
135 183
135 187
135 204
135 215
135 219
135 226
135 227
135 251
135 261
135 287
135 289
135 294
135 301
135 306
135 307
135 326
135 338
135 341
135 352
135 397
135 1750
136 146
136 147
136 153
136 154
136 158
136 159
136 162
136 166
136 175
136 191
136 192
136 206
136 209
136 213
136 216
136 233
136 235
136 244
136 246
136 250
136 253
136 260
136 263
136 264
136 276
136 283
136 295
136 298
136 302
136 305
136 313
136 316
136 325
136 331
136 337
136 355
136 379
136 381
136 383
136 384
136 385
136 390
136 399
136 438
136 1256
136 1682
137 169
137 181
137 192
137 219
137 240
137 246
137 260
137 261
137 267
137 269
137 279
137 288
137 299
137 304
137 312
137 313
137 315
137 319
137 368
137 374
137 383
137 395
138 151
138 154
138 171
138 190
138 194
138 196
138 206
138 211
138 214
138 257
138 267
138 278
138 284
138 288
138 307
138 317
138 318
138 326
138 342
138 376
138 386
138 388
138 393
138 396
138 911
139 143
139 157
139 187
139 195
139 200
139 221
139 232
139 237
139 248
139 253
139 258
139 271
139 275
139 279
139 284
139 285
139 291
139 300
139 316
139 325
139 330
139 337
139 340
139 342
139 363
139 364
139 382
139 392
139 401
139 442
139 836
139 1742
140 142
140 144
140 146
140 166
140 180
140 185
140 220
140 224
140 227
140 229
140 248
140 257
140 272
140 279
140 280
140 284
140 295
140 304
140 324
140 327
140 330
140 332
140 350
140 364
140 378
141 147
141 161
141 173
141 178
141 183
141 202
141 206
141 209
141 215
141 235
141 240
141 249
141 259
141 260
141 262
141 265
141 293
141 302
141 335
141 336
141 347
141 352
141 357
141 360
141 367
141 370
141 387
141 397
141 398
141 1119
142 143
142 176
142 190
142 199
142 202
142 203
142 216
142 227
142 237
142 239
142 243
142 269
142 285
142 302
142 303
142 304
142 312
142 315
142 323
142 325
142 335
142 351
142 368
142 381
142 392
143 160
143 166
143 190
143 191
143 192
143 201
143 204
143 213
143 216
143 221
143 224
143 227
143 230
143 244
143 250
143 255
143 265
143 267
143 269
143 280
143 287
143 289
143 297
143 303
143 314
143 316
143 331
143 341
143 367
143 379
143 382
143 385
143 392
143 394
143 1092
144 161
144 163
144 170
144 175
144 198
144 202
144 206
144 220
144 227
144 228
144 229
144 239
144 246
144 247
144 250
144 252
144 256
144 280
144 293
144 298
144 320
144 328
144 348
144 352
144 357
144 360
144 374
144 383
144 388
144 394
144 1418
145 159
145 166
145 182
145 188
145 203
145 215
145 228
145 242
145 247
145 253
145 264
145 277
145 302
145 324
145 345
145 351
145 361
145 377
145 384
145 390
145 395
145 396
145 590
146 150
146 172
146 174
146 186
146 200
146 202
146 204
146 243
146 245
146 257
146 275
146 277
146 305
146 326
146 350
146 547
147 161
147 180
147 183
147 194
147 202
147 204
147 223
147 229
147 251
147 252
147 258
147 270
147 274
147 282
147 284
147 286
147 290
147 320
147 334
147 346
147 393
147 1875
148 155
148 156
148 163
148 167
148 176
148 179
148 206
148 212
148 213
148 218
148 234
148 238
148 251
148 253
148 268
148 272
148 274
148 277
148 284
148 288
148 309
148 312
148 336
148 339
148 347
148 352
148 377
148 395
148 398
148 1749
148 1952
149 163
149 167
149 178
149 207
149 225
149 228
149 232
149 244
149 247
149 249
149 261
149 278
149 319
149 341
149 354
149 359
149 367
149 377
149 387
149 963
149 1021
150 151
150 163
150 165
150 188
150 208
150 211
150 214
150 232
150 236
150 239
150 245
150 246
150 255
150 256
150 263
150 307
150 308
150 328
150 333
150 347
150 350
150 371
150 386
150 397
150 711
150 1867
151 162
151 169
151 182
151 185
151 193
151 198
151 208
151 214
151 215
151 222
151 244
151 247
151 257
151 260
151 261
151 262
151 264
151 272
151 282
151 284
151 291
151 324
151 326
151 349
151 365
151 383
151 398
151 400
152 153
152 157
152 169
152 173
152 203
152 207
152 215
152 223
152 273
152 276
152 300
152 308
152 314
152 328
152 335
152 339
152 340
152 347
152 359
152 376
152 386
152 394
152 614
153 175
153 179
153 180
153 184
153 192
153 197
153 218
153 219
153 226
153 230
153 232
153 235
153 243
153 248
153 268
153 283
153 294
153 301
153 315
153 332
153 350
153 351
153 360
153 365
153 368
153 1740
154 173
154 183
154 195
154 209
154 226
154 231
154 233
154 236
154 243
154 245
154 267
154 275
154 289
154 299
154 303
154 309
154 340
154 351
154 354
154 362
154 363
154 364
154 375
154 376
154 1464
155 156
155 158
155 162
155 172
155 183
155 197
155 202
155 217
155 221
155 222
155 231
155 239
155 240
155 241
155 249
155 281
155 320
155 331
155 352
155 362
155 369
155 376
155 383
155 391
155 395
155 396
155 604
155 741
155 1474
156 174
156 213
156 214
156 218
156 243
156 247
156 255
156 262
156 266
156 282
156 284
156 288
156 306
156 313
156 314
156 317
156 323
156 324
156 332
156 352
156 356
156 357
156 362
156 385
156 391
156 398
156 399
156 846
156 1952
156 1973
157 160
157 162
157 167
157 192
157 203
157 222
157 250
157 267
157 309
157 317
157 328
157 340
157 342
157 354
157 357
157 369
157 379
157 393
157 683
158 168
158 173
158 186
158 191
158 204
158 225
158 230
158 242
158 246
158 247
158 270
158 301
158 305
158 314
158 316
158 322
158 326
158 1077
158 1311
159 182
159 198
159 203
159 205
159 211
159 212
159 216
159 224
159 227
159 239
159 243
159 249
159 252
159 255
159 257
159 265
159 268
159 277
159 290
159 292
159 295
159 305
159 307
159 325
159 329
159 330
159 332
159 338
159 345
159 355
159 362
159 365
159 371
159 385
159 386
159 945
159 1287
160 168
160 178
160 190
160 220
160 226
160 249
160 271
160 272
160 275
160 286
160 306
160 307
160 318
160 333
160 337
160 339
160 356
160 371
160 372
160 375
160 397
160 873
161 162
161 167
161 183
161 186
161 217
161 228
161 254
161 263
161 268
161 276
161 281
161 306
161 349
161 354
161 376
161 383
161 1266
161 1990
162 171
162 180
162 186
162 193
162 201
162 207
162 222
162 234
162 239
162 247
162 264
162 266
162 272
162 273
162 276
162 278
162 280
162 282
162 289
162 291
162 307
162 311
162 337
162 346
162 347
162 359
162 373
162 378
162 384
162 394
163 170
163 180
163 187
163 218
163 222
163 232
163 242
163 245
163 260
163 264
163 267
163 273
163 274
163 286
163 313
163 340
163 347
163 364
163 377
163 378
163 380
163 382
163 383
163 390
163 1655
164 166
164 168
164 170
164 176
164 197
164 199
164 214
164 215
164 216
164 219
164 227
164 234
164 238
164 239
164 242
164 246
164 249
164 272
164 286
164 287
164 299
164 307
164 317
164 320
164 333
164 335
164 338
164 339
164 344
164 370
164 389
164 393
164 653
164 819
164 1910
165 178
165 208
165 216
165 220
165 247
165 251
165 264
165 270
165 283
165 306
165 324
165 327
165 339
165 345
165 362
165 370
165 372
165 381
165 394
165 398
165 495
165 1197
165 1484
166 179
166 196
166 199
166 209
166 217
166 227
166 234
166 241
166 253
166 281
166 289
166 296
166 312
166 318
166 321
166 322
166 333
166 356
166 372
166 395
166 813
166 1036
167 177
167 197
167 209
167 226
167 228
167 232
167 235
167 250
167 263
167 266
167 273
167 277
167 291
167 305
167 344
167 352
167 357
167 358
167 360
167 361
167 362
167 367
167 378
167 384
167 389
167 392
167 890
167 1398
168 175
168 191
168 195
168 197
168 201
168 202
168 220
168 222
168 224
168 233
168 242
168 261
168 266
168 271
168 278
168 286
168 303
168 327
168 333
168 342
168 347
168 352
168 354
168 389
168 395
168 397
168 398
168 1004
168 1588
168 1826
169 170
169 173
169 194
169 201
169 229
169 241
169 279
169 281
169 311
169 321
169 325
169 326
169 331
169 345
169 351
169 370
169 390
169 415
170 184
170 214
170 216
170 217
170 228
170 237
170 246
170 263
170 268
170 270
170 271
170 276
170 277
170 280
170 303
170 323
170 328
170 345
170 350
170 361
170 365
170 374
170 386
170 395
170 585
170 844
170 925
171 183
171 187
171 202
171 293
171 301
171 308
171 314
171 319
171 325
171 333
171 345
171 355
171 358
171 368
171 385
171 388
172 175
172 187
172 192
172 208
172 210
172 223
172 247
172 254
172 257
172 259
172 262
172 268
172 275
172 282
172 288
172 292
172 327
172 358
172 375
172 395
172 396
172 421
172 614
172 1291
172 1889
173 176
173 177
173 179
173 180
173 181
173 198
173 207
173 218
173 220
173 222
173 238
173 242
173 243
173 260
173 261
173 285
173 316
173 332
173 341
173 342
173 344
173 354
173 360
173 368
173 385
173 389
173 391
173 1296
173 1437
174 198
174 201
174 213
174 219
174 221
174 228
174 241
174 242
174 256
174 282
174 284
174 288
174 306
174 310
174 312
174 316
174 326
174 328
174 335
174 370
174 373
174 383
174 397
174 1049
174 1154
175 184
175 212
175 217
175 234
175 237
175 241
175 250
175 259
175 262
175 266
175 269
175 296
175 297
175 323
175 345
175 349
175 351
175 365
175 388
175 399
175 612
176 178
176 188
176 191
176 204
176 215
176 218
176 219
176 221
176 222
176 226
176 287
176 303
176 304
176 308
176 309
176 318
176 336
176 337
176 343
176 349
176 370
176 395
176 1334
176 1573
177 181
177 192
177 197
177 203
177 226
177 255
177 275
177 279
177 291
177 293
177 303
177 307
177 320
177 344
177 354
177 364
177 386
177 390
177 392
177 399
177 1311
177 1835
178 228
178 236
178 240
178 267
178 282
178 291
178 292
178 303
178 309
178 345
178 347
178 360
178 362
178 370
178 372
178 395
178 714
178 1099
178 1684
178 1832
179 184
179 192
179 195
179 202
179 204
179 221
179 237
179 249
179 250
179 251
179 254
179 256
179 262
179 269
179 275
179 279
179 294
179 298
179 312
179 323
179 364
179 382
179 387
179 388
179 392
179 395
179 396
179 1010
180 192
180 193
180 204
180 221
180 230
180 231
180 234
180 237
180 240
180 249
180 271
180 285
180 300
180 325
180 328
180 352
180 368
180 378
180 380
180 389
180 393
180 394
180 395
180 397
181 193
181 200
181 205
181 217
181 221
181 239
181 291
181 297
181 303
181 311
181 321
181 329
181 352
181 358
181 361
181 365
181 366
181 369
181 375
181 380
182 192
182 215
182 238
182 246
182 262
182 302
182 305
182 328
182 343
182 348
182 368
182 372
182 381
182 384
182 385
182 392
182 661
182 1099
183 189
183 191
183 194
183 196
183 218
183 219
183 221
183 226
183 240
183 247
183 261
183 268
183 271
183 277
183 284
183 285
183 312
183 332
183 334
183 338
183 339
183 369
183 371
183 374
183 386
183 395
184 185
184 192
184 201
184 205
184 233
184 245
184 268
184 275
184 279
184 288
184 294
184 307
184 322
184 331
184 336
184 337
184 357
184 360
184 366
184 397
184 575
184 1360
185 198
185 205
185 213
185 214
185 215
185 231
185 258
185 264
185 266
185 296
185 303
185 309
185 325
185 331
185 335
185 343
185 345
185 349
185 351
185 358
185 364
185 366
185 380
185 385
185 386
185 396
186 193
186 200
186 201
186 244
186 260
186 262
186 263
186 271
186 309
186 315
186 322
186 329
186 343
186 351
186 357
186 367
186 375
186 384
187 189
187 190
187 213
187 221
187 226
187 227
187 232
187 254
187 263
187 274
187 283
187 288
187 291
187 296
187 307
187 308
187 309
187 314
187 316
187 319
187 322
187 330
187 346
187 350
187 351
187 358
187 365
187 394
187 399
187 1599
188 189
188 196
188 203
188 204
188 226
188 243
188 255
188 260
188 271
188 272
188 289
188 313
188 320
188 331
188 351
188 363
188 383
188 387
188 390
188 1099
188 1474
188 1575
189 195
189 209
189 212
189 224
189 229
189 270
189 283
189 285
189 295
189 298
189 301
189 310
189 315
189 323
189 329
189 354
189 355
189 370
189 377
189 385
189 387
189 1638
189 1963
190 191
190 192
190 198
190 205
190 216
190 226
190 233
190 239
190 241
190 251
190 261
190 268
190 270
190 272
190 273
190 315
190 341
190 351
190 353
190 370
190 377
190 378
190 380
190 396
190 505
190 1031
191 196
191 225
191 313
191 319
191 321
191 333
191 336
191 354
191 357
191 383
191 395
191 396
191 397
191 1889
192 223
192 232
192 234
192 235
192 256
192 265
192 274
192 284
192 290
192 308
192 309
192 312
192 324
192 336
192 341
192 353
192 368
192 372
192 376
192 396
192 736
193 200
193 201
193 204
193 208
193 257
193 274
193 277
193 290
193 307
193 311
193 313
193 333
193 340
193 351
193 359
193 361
193 378
193 607
193 873
193 1186
193 1305
194 207
194 209
194 211
194 217
194 222
194 225
194 229
194 240
194 242
194 266
194 278
194 281
194 283
194 306
194 320
194 322
194 325
194 326
194 337
194 338
194 362
194 366
194 375
194 377
194 379
194 385
194 386
194 399
194 423
194 584
194 1264
195 207
195 209
195 216
195 223
195 235
195 251
195 253
195 257
195 266
195 278
195 304
195 316
195 318
195 366
195 368
195 382
195 392
195 393
196 223
196 256
196 257
196 263
196 278
196 290
196 312
196 313
196 319
196 321
196 334
196 336
196 346
196 348
196 356
196 359
196 363
196 367
196 368
196 384
197 217
197 226
197 242
197 247
197 266
197 269
197 271
197 304
197 315
197 318
197 337
197 339
197 347
197 374
197 1100
197 1223
198 199
198 205
198 207
198 208
198 220
198 223
198 236
198 247
198 249
198 259
198 269
198 315
198 322
198 336
198 342
198 361
198 364
198 367
198 387
198 391
198 393
198 399
198 1129
199 204
199 218
199 219
199 224
199 237
199 244
199 245
199 247
199 250
199 266
199 280
199 292
199 305
199 309
199 314
199 331
199 348
199 351
199 355
199 372
199 377
199 384
199 386
199 397
199 762
199 789
199 801
199 1607
200 205
200 228
200 254
200 260
200 262
200 271
200 278
200 298
200 326
200 330
200 359
200 385
200 388
200 1012
201 215
201 220
201 232
201 233
201 248
201 253
201 257
201 262
201 263
201 272
201 287
201 299
201 302
201 303
201 310
201 336
201 341
201 343
201 347
201 381
201 392
201 467
202 217
202 220
202 222
202 226
202 228
202 234
202 261
202 266
202 271
202 283
202 287
202 299
202 301
202 309
202 310
202 334
202 336
202 350
202 355
202 357
202 370
202 371
202 372
202 399
202 1122
202 1343
203 207
203 227
203 231
203 238
203 244
203 246
203 256
203 260
203 269
203 292
203 295
203 334
203 351
203 356
203 358
203 362
203 375
203 382
203 389
203 938
203 1278
203 1335
204 219
204 228
204 233
204 235
204 253
204 275
204 305
204 308
204 322
204 333
204 338
204 372
204 377
204 380
204 399
204 1521
205 228
205 230
205 233
205 244
205 247
205 253
205 257
205 262
205 276
205 290
205 322
205 331
205 333
205 340
205 342
205 352
205 374
206 221
206 224
206 226
206 227
206 258
206 263
206 283
206 285
206 292
206 295
206 297
206 308
206 326
206 330
206 331
206 347
206 349
206 353
206 357
206 377
206 379
206 382
206 384
206 394
206 396
207 215
207 217
207 228
207 237
207 239
207 242
207 247
207 250
207 268
207 277
207 293
207 297
207 306
207 309
207 333
207 339
207 346
207 354
207 355
207 358
207 373
207 381
207 391
207 392
207 564
207 681
207 1169
207 1781
207 1786
208 210
208 215
208 218
208 223
208 248
208 250
208 257
208 258
208 263
208 271
208 273
208 276
208 277
208 289
208 298
208 299
208 313
208 314
208 321
208 348
208 351
208 352
208 356
208 358
208 366
208 383
208 1420
209 213
209 222
209 230
209 232
209 242
209 254
209 259
209 260
209 290
209 291
209 302
209 322
209 326
209 334
209 336
209 356
209 360
209 361
209 365
209 371
209 385
209 389
209 392
210 229
210 231
210 258
210 260
210 273
210 283
210 302
210 315
210 332
210 333
210 336
210 338
210 344
210 347
210 351
210 360
210 365
210 1447
211 219
211 225
211 235
211 245
211 260
211 281
211 288
211 301
211 332
211 345
211 357
211 366
211 368
211 374
211 385
211 1895
212 223
212 225
212 228
212 234
212 236
212 244
212 253
212 282
212 285
212 296
212 307
212 314
212 322
212 325
212 326
212 347
212 353
212 360
212 362
212 369
212 372
212 378
212 383
212 386
212 399
213 243
213 261
213 262
213 264
213 292
213 299
213 301
213 303
213 314
213 317
213 341
213 346
213 371
213 380
213 397
214 223
214 224
214 227
214 230
214 239
214 240
214 241
214 257
214 267
214 271
214 274
214 277
214 279
214 293
214 295
214 298
214 300
214 301
214 324
214 329
214 330
214 333
214 357
214 364
214 378
214 384
214 394
214 1294
215 221
215 240
215 247
215 250
215 259
215 272
215 284
215 285
215 291
215 293
215 299
215 300
215 316
215 327
215 339
215 359
215 367
215 369
215 760
216 223
216 232
216 233
216 239
216 241
216 263
216 272
216 274
216 275
216 285
216 287
216 290
216 294
216 300
216 303
216 305
216 306
216 310
216 315
216 316
216 318
216 326
216 342
216 346
216 359
216 366
216 372
216 376
216 386
216 1750
217 219
217 221
217 223
217 227
217 238
217 240
217 257
217 258
217 263
217 268
217 297
217 301
217 307
217 311
217 322
217 331
217 333
217 369
217 379
217 381
217 383
217 393
217 499
217 1808
218 227
218 237
218 240
218 264
218 318
218 336
218 339
218 347
218 364
218 378
218 382
218 387
218 390
218 480
218 1860
219 244
219 262
219 266
219 270
219 275
219 281
219 301
219 303
219 319
219 337
219 343
219 344
219 379
219 384
219 386
219 389
219 1308
219 1884
220 236
220 241
220 242
220 247
220 267
220 272
220 275
220 284
220 290
220 297
220 300
220 315
220 326
220 336
220 344
220 353
220 359
220 367
220 371
220 376
220 387
220 388
220 394
221 268
221 269
221 272
221 307
221 327
221 335
221 336
221 348
221 349
221 362
221 373
221 379
221 399
221 1178
221 1441
222 229
222 233
222 248
222 253
222 257
222 262
222 267
222 274
222 280
222 289
222 294
222 295
222 308
222 317
222 352
222 377
222 386
222 1107
222 1592
223 238
223 261
223 262
223 265
223 268
223 269
223 271
223 277
223 284
223 285
223 291
223 318
223 323
223 368
223 389
223 645
223 793
223 900
223 1546
224 238
224 244
224 258
224 259
224 278
224 281
224 293
224 294
224 306
224 308
224 321
224 342
224 360
224 367
224 374
224 377
224 379
224 388
224 392
224 567
224 1149
225 248
225 276
225 294
225 296
225 297
225 309
225 313
225 321
225 326
225 331
225 332
225 350
225 358
225 366
225 379
225 380
225 383
225 397
225 513
225 1403
226 228
226 232
226 240
226 245
226 253
226 261
226 263
226 265
226 269
226 271
226 273
226 274
226 275
226 282
226 283
226 298
226 304
226 308
226 317
226 320
226 328
226 335
226 338
226 353
226 358
226 362
226 364
226 389
226 392
226 393
226 395
227 231
227 245
227 269
227 270
227 278
227 280
227 295
227 304
227 307
227 325
227 345
227 363
227 364
227 386
227 390
227 398
227 1022
228 233
228 243
228 276
228 277
228 282
228 292
228 298
228 303
228 305
228 311
228 326
228 331
228 334
228 347
228 399
228 1765
229 257
229 280
229 283
229 290
229 291
229 299
229 301
229 304
229 314
229 329
229 343
229 349
229 367
229 378
229 381
229 385
229 396
229 883
229 1107
229 1581
230 236
230 246
230 266
230 277
230 284
230 289
230 300
230 313
230 341
230 347
230 359
230 366
230 370
230 380
230 390
230 392
230 1187
230 1356
230 1477
231 247
231 252
231 273
231 296
231 344
231 365
231 372
231 383
231 387
231 390
231 745
231 1635
231 1958
232 235
232 238
232 239
232 254
232 269
232 276
232 281
232 292
232 296
232 298
232 325
232 330
232 339
232 343
232 353
232 369
232 372
232 379
232 392
232 394
232 395
232 664
233 259
233 262
233 276
233 289
233 317
233 320
233 331
233 334
233 342
233 353
233 357
233 363
233 395
233 396
233 431
234 249
234 269
234 273
234 285
234 303
234 313
234 315
234 316
234 322
234 325
234 327
234 336
234 340
234 363
234 369
234 383
234 386
234 741
235 245
235 274
235 284
235 290
235 293
235 301
235 311
235 319
235 324
235 329
235 337
235 362
235 364
235 376
235 722
236 240
236 242
236 262
236 263
236 277
236 278
236 304
236 311
236 312
236 340
236 359
236 385
237 245
237 246
237 249
237 251
237 265
237 272
237 273
237 289
237 290
237 298
237 310
237 317
237 319
237 325
237 346
237 362
237 381
237 388
238 269
238 273
238 280
238 300
238 308
238 311
238 323
238 361
238 370
238 378
238 383
238 387
238 390
238 397
239 241
239 250
239 251
239 258
239 262
239 268
239 269
239 276
239 316
239 323
239 328
239 336
239 345
239 347
239 351
239 360
239 378
239 396
240 242
240 243
240 274
240 276
240 298
240 303
240 304
240 314
240 322
240 332
240 346
240 347
240 353
240 356
240 357
240 358
240 377
240 397
240 1410
240 1533
241 257
241 261
241 262
241 273
241 276
241 278
241 284
241 286
241 293
241 302
241 317
241 320
241 340
241 350
241 357
241 366
241 368
241 374
241 384
241 389
241 390
242 253
242 281
242 286
242 293
242 305
242 315
242 318
242 330
242 334
242 335
242 336
242 337
242 361
242 379
242 390
242 396
242 835
242 1729
243 247
243 265
243 267
243 268
243 286
243 296
243 300
243 309
243 317
243 336
243 340
243 357
243 363
243 370
243 1116
243 1790
244 253
244 261
244 264
244 266
244 280
244 316
244 339
244 341
244 360
244 391
245 248
245 264
245 275
245 292
245 295
245 305
245 312
245 323
245 326
245 330
245 339
245 348
245 360
245 365
245 370
245 379
245 552
245 1609
246 250
246 251
246 262
246 270
246 279
246 280
246 283
246 313
246 318
246 323
246 325
246 347
246 351
246 359
246 360
246 368
246 383
246 391
246 392
246 1042
247 258
247 274
247 277
247 283
247 284
247 302
247 304
247 305
247 318
247 328
247 336
247 340
247 347
247 365
247 390
247 891
248 268
248 284
248 307
248 310
248 319
248 330
248 356
248 358
248 362
248 1710
249 258
249 259
249 270
249 283
249 285
249 293
249 334
249 336
249 342
249 370
249 371
249 384
249 396
249 397
249 1331
250 266
250 283
250 304
250 305
250 316
250 318
250 320
250 323
250 346
250 353
250 354
250 357
250 367
250 380
250 576
251 258
251 274
251 275
251 288
251 300
251 301
251 302
251 307
251 317
251 350
251 371
251 383
251 394
251 742
252 286
252 292
252 319
252 321
252 329
252 334
252 339
252 343
252 357
252 359
252 366
252 367
252 384
252 397
252 398
252 642
252 1890
253 262
253 270
253 274
253 278
253 283
253 318
253 329
253 333
253 348
253 350
253 351
253 368
253 370
253 394
253 398
253 1917
254 262
254 282
254 302
254 335
254 345
254 350
254 369
254 379
254 382
254 722
255 283
255 304
255 309
255 342
255 364
255 393
255 1648
256 270
256 284
256 291
256 323
256 339
256 351
256 371
256 381
256 389
256 396
256 398
256 399
257 259
257 260
257 273
257 288
257 293
257 325
257 331
257 349
257 353
257 360
257 371
257 384
257 982
257 1368
257 1794
258 303
258 305
258 328
258 329
258 334
258 343
258 346
258 354
258 379
258 1446
259 268
259 278
259 289
259 299
259 313
259 325
259 326
259 334
259 337
259 344
259 348
259 352
259 378
259 384
259 387
259 1336
260 264
260 270
260 272
260 280
260 292
260 311
260 312
260 313
260 343
260 353
260 366
260 389
260 392
260 393
260 395
260 627
260 807
260 1955
261 263
261 267
261 269
261 270
261 281
261 305
261 307
261 315
261 332
261 355
261 356
261 376
261 383
261 577
261 846
261 924
261 1429
262 263
262 264
262 272
262 286
262 288
262 292
262 295
262 307
262 310
262 325
262 348
262 364
262 365
262 366
262 371
262 379
262 380
262 391
262 879
262 1764
263 265
263 267
263 274
263 287
263 303
263 309
263 312
263 318
263 321
263 363
263 398
263 436
263 785
263 1284
263 1840
264 283
264 290
264 298
264 308
264 324
264 327
264 349
264 366
264 367
264 385
264 395
264 399
265 272
265 285
265 297
265 319
265 320
265 326
265 327
265 342
265 353
265 357
265 364
265 366
265 398
265 463
266 269
266 272
266 279
266 306
266 307
266 317
266 328
266 352
266 359
266 361
266 377
266 386
266 399
266 788
267 279
267 287
267 298
267 320
267 339
267 342
267 353
267 359
267 361
267 396
267 399
267 1262
267 1593
267 1942
268 277
268 279
268 288
268 291
268 294
268 307
268 308
268 310
268 315
268 318
268 333
268 339
268 344
268 351
268 352
268 361
268 374
268 381
268 392
268 436
269 277
269 285
269 292
269 307
269 310
269 311
269 314
269 351
269 354
269 382
269 391
269 395
269 478
269 1412
269 1781
269 1799
270 294
270 305
270 307
270 310
270 320
270 353
270 368
270 398
270 1743
271 295
271 300
271 302
271 316
271 329
271 342
271 346
271 351
271 361
271 371
271 379
271 383
271 388
271 394
271 1109
272 291
272 293
272 298
272 332
272 342
272 343
272 361
272 607
272 1531
272 1729
273 279
273 285
273 299
273 304
273 306
273 320
273 322
273 334
273 341
273 343
273 358
273 363
273 392
273 708
274 303
274 305
274 312
274 327
274 349
274 378
274 381
274 389
274 398
274 900
275 283
275 288
275 301
275 332
275 347
275 348
275 355
275 371
275 381
275 384
275 386
275 395
275 1044
275 1855
276 303
276 304
276 325
276 328
276 338
276 357
276 384
276 398
277 290
277 325
277 364
277 382
277 394
277 1576
277 1650
277 1797
278 299
278 302
278 304
278 310
278 316
278 317
278 343
278 351
278 365
278 368
278 369
278 371
278 373
278 375
278 377
278 970
278 1276
279 280
279 285
279 297
279 301
279 311
279 326
279 327
279 335
279 336
279 374
279 399
279 878
280 309
280 316
280 325
280 328
280 344
280 348
280 354
280 355
280 362
280 365
280 382
280 384
280 389
280 390
281 282
281 307
281 336
281 337
281 342
281 374
281 386
281 1578
282 286
282 290
282 298
282 299
282 301
282 320
282 348
282 351
282 370
282 379
282 380
282 384
282 387
282 392
282 1531
282 1542
283 293
283 302
283 313
283 319
283 325
283 333
283 334
283 350
283 368
283 375
283 394
283 832
283 851
283 1462
284 290
284 297
284 304
284 312
284 313
284 336
284 355
284 359
284 361
284 363
284 389
284 390
284 396
285 299
285 306
285 324
285 343
285 346
285 359
285 360
285 372
285 375
285 376
285 380
285 383
285 385
285 1339
286 289
286 298
286 303
286 324
286 325
286 345
286 358
286 367
286 369
286 376
286 377
286 386
286 394
286 397
287 290
287 304
287 316
287 318
287 326
287 336
287 341
287 352
287 387
287 1330
288 303
288 313
288 316
288 317
288 334
288 345
288 355
288 380
288 381
288 388
288 390
288 394
288 399
289 304
289 306
289 320
289 342
289 347
289 349
289 352
289 361
289 369
289 391
289 394
289 395
289 1087
289 1172
290 311
290 335
290 342
290 362
290 365
290 372
290 374
290 386
290 388
290 399
291 292
291 305
291 317
291 328
291 346
291 357
291 362
291 377
291 382
291 1140
292 301
292 302
292 318
292 353
292 364
292 399
292 1002
292 1656
293 306
293 309
293 317
293 318
293 331
293 337
293 343
293 344
293 392
293 398
294 302
294 323
294 325
294 328
294 330
294 335
294 336
294 340
294 342
294 356
294 360
294 378
294 383
294 389
294 395
294 1448
295 310
295 313
295 320
295 341
295 350
295 372
295 385
295 919
295 1727
296 303
296 311
296 313
296 320
296 331
296 345
296 348
296 355
296 368
296 371
296 380
296 396
296 399
296 1343
296 1434
297 310
297 320
297 321
297 343
297 350
297 376
297 377
297 930
297 1243
297 1793
298 308
298 309
298 314
298 351
298 372
298 377
298 396
298 1410
299 301
299 304
299 322
299 331
299 342
299 389
300 338
300 345
300 347
300 355
300 363
300 374
300 380
300 381
300 817
300 1075
300 1184
300 1504
301 307
301 312
301 314
301 330
301 332
301 338
301 349
301 351
301 358
301 371
301 377
301 378
301 396
301 442
301 1823
301 1862
302 310
302 313
302 318
302 325
302 330
302 343
302 369
302 383
302 392
302 668
303 333
303 335
303 337
303 343
303 347
303 349
303 360
303 382
303 384
303 385
303 390
303 393
303 908
303 1683
303 1794
304 310
304 311
304 325
304 346
304 350
304 383
304 436
304 583
305 309
305 310
305 338
305 339
305 340
305 350
305 351
305 367
305 372
305 399
305 757
306 326
306 329
306 337
306 362
306 363
306 393
306 399
307 308
307 318
307 323
307 327
307 328
307 341
307 352
307 360
307 362
307 366
307 380
307 385
307 389
307 399
308 325
308 328
308 338
308 340
308 342
308 385
309 314
309 328
309 331
309 340
309 351
309 365
309 370
309 391
309 395
309 513
309 1377
310 320
310 325
310 327
310 348
310 350
310 353
310 358
310 363
310 392
310 399
311 331
311 335
311 355
311 372
311 381
311 383
311 385
311 388
311 397
311 932
311 1219
312 318
312 321
312 334
312 355
312 362
312 366
312 382
312 388
312 398
312 1029
312 1382
313 330
313 350
313 363
313 398
313 1734
314 316
314 322
314 327
314 345
314 359
314 391
314 606
314 1657
315 316
315 317
315 332
315 352
315 369
315 370
315 371
315 380
315 396
316 327
316 330
316 333
316 353
316 374
316 396
316 1102
316 1550
317 320
317 347
317 372
317 375
317 1144
317 1411
317 1881
318 329
318 354
318 358
318 384
319 320
319 338
319 370
319 371
319 376
319 384
319 386
319 390
319 398
319 1163
319 1240
319 1771
320 333
320 338
320 347
320 358
320 363
320 364
320 383
320 671
320 905
320 1700
321 336
321 344
321 350
321 382
321 384
321 386
321 390
321 396
321 398
321 871
321 1006
322 340
322 346
322 358
322 364
322 374
322 380
322 381
322 384
322 385
322 664
322 1091
322 1997
323 328
323 329
323 334
323 346
323 363
323 366
323 370
323 372
323 382
323 386
323 705
323 1675
324 327
324 328
324 340
324 349
324 358
324 359
324 1195
324 1754
325 332
325 348
325 351
325 352
325 361
325 384
325 387
325 394
325 1555
326 349
326 359
326 368
326 369
326 376
326 387
326 391
326 1236
327 338
327 341
327 368
327 369
327 383
327 397
327 1274
327 1771
328 332
328 343
328 348
328 357
328 393
328 396
329 338
329 339
329 360
329 366
329 367
329 372
329 389
329 740
329 1274
330 335
330 340
330 366
330 372
330 377
330 385
330 389
330 393
330 405
331 355
331 361
331 368
331 375
331 377
331 387
331 444
331 838
331 940
331 1188
332 346
332 367
332 373
332 390
332 415
333 349
333 353
333 361
333 362
333 927
333 1015
333 1151
333 1610
333 1855
334 350
334 358
334 376
334 380
334 381
334 385
334 507
334 600
334 1129
334 1445
335 336
335 349
335 362
335 376
335 379
335 380
335 392
335 395
335 398
335 601
336 342
336 343
336 371
336 375
336 381
336 389
336 709
337 339
337 360
337 362
337 363
337 370
337 374
337 382
337 389
337 390
337 391
337 392
337 398
338 344
338 348
338 358
338 369
338 383
339 345
339 358
339 376
339 386
339 395
339 398
339 497
339 1209
339 1941
340 346
340 349
340 350
340 352
340 373
340 387
340 396
340 1150
340 1857
341 342
341 351
341 355
341 356
341 362
341 365
341 384
341 385
342 347
342 349
342 388
343 354
343 358
343 365
343 390
343 902
344 347
344 368
344 373
344 375
344 377
344 394
344 1504
345 349
345 354
345 363
345 379
345 385
345 392
345 575
345 1832
346 350
346 374
346 378
346 380
346 388
346 391
346 397
346 772
347 354
347 361
347 374
347 378
347 382
347 383
347 385
347 723
348 350
348 357
348 362
348 377
348 390
348 391
348 399
349 353
349 357
349 360
349 369
349 372
349 376
349 381
349 392
349 1238
350 357
350 362
350 363
350 388
350 399
350 1374
350 1493
350 1724
351 576
352 353
352 371
352 375
352 382
352 389
352 398
353 364
353 368
353 393
353 395
353 399
353 1565
354 356
354 365
354 370
354 396
354 397
355 367
355 377
355 380
355 864
355 1306
355 1447
356 367
356 384
356 504
356 1637
357 374
357 385
357 390
357 1938
358 375
358 380
358 382
358 384
359 380
359 385
359 791
359 1772
360 362
360 372
360 376
360 386
360 397
360 456
361 362
361 376
361 713
361 1199
361 1388
361 1794
362 374
362 380
362 385
362 391
362 394
363 376
363 393
363 395
363 641
364 392
364 1177
364 1235
366 478
366 1768
366 1912
367 381
367 386
367 394
367 1583
368 370
368 396
368 727
368 1485
369 370
369 373
369 375
369 376
369 381
369 388
369 391
369 398
369 779
369 1062
369 1245
370 376
370 377
370 380
370 387
370 399
370 1256
371 376
371 1278
371 1428
372 377
372 385
372 1501
372 1969
373 388
373 978
373 1181
374 378
374 381
374 387
374 1719
375 666
376 381
376 387
376 399
376 1479
376 1682
376 1989
377 381
377 383
377 396
377 1243
377 1569
378 949
378 1415
379 612
379 1171
380 381
380 389
380 394
380 740
380 1107
380 1401
380 1416
381 389
381 390
381 453
381 1629
382 1945
383 385
383 878
384 395
384 396
384 397
384 398
384 559
384 1392
385 388
385 399
385 470
385 709
385 982
385 1251
386 485
386 662
387 392
387 398
387 1766
388 391
388 393
388 394
388 395
388 1144
389 395
389 1934
389 1944
390 814
390 1034
390 1813
391 394
391 610
391 903
391 1917
393 426
393 604
393 1239
394 395
397 594
397 632
397 1130
397 1936
398 1069
398 1726
398 1843
399 410
399 560
399 917
400 405
400 407
400 412
400 414
400 453
400 462
400 482
400 496
400 503
400 508
400 538
400 571
400 572
400 581
400 595
400 609
400 611
400 613
400 638
400 659
400 660
400 691
400 692
400 695
400 711
400 715
400 737
400 742
400 758
400 778
400 795
400 796
400 1366
400 1524
400 1968
401 432
401 436
401 437
401 439
401 441
401 445
401 447
401 455
401 486
401 500
401 509
401 517
401 529
401 549
401 552
401 555
401 556
401 566
401 575
401 583
401 587
401 590
401 592
401 604
401 606
401 618
401 622
401 640
401 650
401 654
401 689
401 710
401 712
401 726
401 741
401 745
401 781
401 786
401 794
401 795
401 798
401 1697
402 403
402 405
402 406
402 408
402 416
402 417
402 424
402 433
402 439
402 474
402 479
402 509
402 531
402 533
402 540
402 569
402 574
402 589
402 597
402 616
402 617
402 624
402 662
402 672
402 674
402 677
402 682
402 691
402 696
402 702
402 705
402 719
402 725
402 730
402 733
402 758
402 772
402 781
402 786
402 795
402 1023
402 1714
403 405
403 406
403 408
403 426
403 428
403 431
403 435
403 440
403 446
403 450
403 452
403 471
403 477
403 482
403 483
403 493
403 499
403 510
403 515
403 544
403 558
403 562
403 567
403 593
403 606
403 618
403 623
403 631
403 649
403 671
403 672
403 682
403 683
403 688
403 695
403 702
403 703
403 708
403 727
403 728
403 732
403 746
403 752
403 778
403 786
403 790
403 793
403 794
403 799
403 1047
404 418
404 432
404 443
404 450
404 453
404 464
404 480
404 483
404 484
404 485
404 496
404 501
404 507
404 510
404 523
404 539
404 547
404 555
404 559
404 568
404 578
404 590
404 607
404 613
404 617
404 628
404 638
404 663
404 664
404 684
404 686
404 694
404 706
404 711
404 712
404 722
404 731
404 769
404 776
404 777
404 792
404 796
404 834
404 1424
405 408
405 409
405 412
405 421
405 422
405 424
405 448
405 461
405 488
405 496
405 498
405 501
405 515
405 520
405 536
405 537
405 540
405 544
405 554
405 562
405 603
405 604
405 606
405 613
405 631
405 641
405 643
405 644
405 648
405 655
405 681
405 696
405 697
405 703
405 730
405 732
405 734
405 737
405 743
405 772
405 786
406 421
406 425
406 437
406 449
406 478
406 479
406 526
406 543
406 551
406 565
406 573
406 588
406 596
406 607
406 608
406 611
406 613
406 621
406 625
406 629
406 641
406 644
406 647
406 651
406 681
406 701
406 708
406 713
406 720
406 723
406 725
406 777
406 779
406 786
406 787
406 794
406 1652
407 412
407 417
407 428
407 445
407 468
407 469
407 480
407 481
407 493
407 495
407 497
407 498
407 506
407 511
407 522
407 523
407 535
407 540
407 547
407 549
407 562
407 568
407 570
407 572
407 576
407 577
407 585
407 594
407 596
407 608
407 620
407 623
407 625
407 636
407 641
407 642
407 643
407 653
407 657
407 670
407 671
407 673
407 680
407 681
407 697
407 698
407 705
407 709
407 726
407 730
407 743
407 762
407 766
407 788
407 794
407 931
408 429
408 438
408 458
408 465
408 467
408 471
408 472
408 478
408 490
408 492
408 568
408 595
408 607
408 635
408 637
408 645
408 660
408 665
408 677
408 697
408 707
408 708
408 729
408 742
408 743
408 754
408 758
408 761
408 764
408 795
408 797
408 1225
409 414
409 417
409 436
409 446
409 447
409 454
409 463
409 498
409 509
409 528
409 532
409 551
409 561
409 563
409 576
409 581
409 599
409 600
409 625
409 649
409 666
409 672
409 685
409 686
409 692
409 700
409 716
409 724
409 731
409 737
409 738
409 757
409 759
409 763
409 774
409 786
409 899
410 426
410 437
410 447
410 454
410 469
410 477
410 486
410 487
410 555
410 564
410 567
410 587
410 599
410 606
410 615
410 616
410 622
410 623
410 628
410 629
410 631
410 638
410 668
410 677
410 688
410 706
410 714
410 715
410 718
410 734
410 753
410 768
410 772
411 419
411 427
411 432
411 436
411 444
411 451
411 455
411 468
411 476
411 486
411 511
411 526
411 529
411 531
411 539
411 576
411 577
411 581
411 599
411 602
411 610
411 630
411 638
411 659
411 666
411 677
411 697
411 704
411 705
411 716
411 721
411 743
411 745
411 759
411 761
411 770
411 779
411 783
411 795
412 419
412 420
412 423
412 432
412 434
412 462
412 466
412 494
412 498
412 499
412 507
412 508
412 520
412 525
412 532
412 536
412 539
412 552
412 557
412 566
412 577
412 578
412 587
412 610
412 621
412 628
412 638
412 656
412 672
412 685
412 687
412 691
412 718
412 725
412 745
412 753
412 756
412 757
412 763
412 764
412 765
412 776
412 779
413 458
413 461
413 468
413 491
413 492
413 497
413 500
413 532
413 536
413 543
413 544
413 549
413 558
413 564
413 565
413 570
413 571
413 597
413 598
413 616
413 625
413 630
413 635
413 644
413 647
413 652
413 666
413 683
413 701
413 704
413 706
413 710
413 711
413 721
413 740
413 766
413 774
413 1515
413 1913
414 452
414 458
414 461
414 468
414 469
414 472
414 474
414 477
414 484
414 508
414 513
414 515
414 535
414 537
414 539
414 549
414 563
414 590
414 612
414 631
414 634
414 648
414 651
414 652
414 658
414 662
414 721
414 734
414 736
414 758
414 771
414 776
414 785
414 1053
414 1664
415 416
415 427
415 428
415 430
415 433
415 436
415 438
415 448
415 451
415 452
415 457
415 463
415 465
415 466
415 481
415 487
415 504
415 505
415 506
415 508
415 519
415 530
415 542
415 547
415 585
415 605
415 634
415 652
415 657
415 661
415 668
415 670
415 682
415 687
415 699
415 728
415 741
415 746
415 762
415 770
415 792
415 1206
415 1956
416 480
416 482
416 484
416 516
416 520
416 525
416 538
416 544
416 546
416 549
416 555
416 556
416 559
416 576
416 590
416 594
416 595
416 597
416 602
416 603
416 620
416 631
416 635
416 661
416 663
416 666
416 678
416 688
416 689
416 695
416 714
416 731
416 744
416 745
416 747
416 754
416 763
416 775
416 785
416 789
416 793
416 794
417 418
417 442
417 450
417 451
417 452
417 467
417 469
417 481
417 484
417 493
417 494
417 501
417 525
417 530
417 532
417 533
417 538
417 539
417 575
417 584
417 591
417 610
417 613
417 615
417 631
417 645
417 648
417 671
417 682
417 695
417 706
417 724
417 774
417 778
417 780
417 868
417 1675
418 424
418 425
418 430
418 434
418 438
418 483
418 502
418 517
418 540
418 546
418 586
418 601
418 603
418 607
418 615
418 621
418 624
418 639
418 648
418 684
418 685
418 694
418 709
418 712
418 725
418 745
418 781
418 797
418 991
419 421
419 434
419 443
419 459
419 479
419 497
419 504
419 506
419 543
419 544
419 552
419 560
419 590
419 597
419 600
419 610
419 619
419 624
419 654
419 659
419 667
419 671
419 697
419 711
419 715
419 724
419 727
419 763
419 782
419 788
419 790
419 861
419 942
419 1596
419 1684
419 1740
420 431
420 445
420 470
420 491
420 492
420 494
420 495
420 521
420 528
420 542
420 574
420 581
420 585
420 587
420 588
420 592
420 608
420 614
420 630
420 637
420 661
420 671
420 678
420 681
420 691
420 697
420 718
420 721
420 725
420 732
420 752
420 756
420 763
420 780
420 788
420 795
421 425
421 431
421 435
421 440
421 463
421 464
421 478
421 480
421 484
421 494
421 517
421 538
421 541
421 551
421 552
421 564
421 578
421 582
421 594
421 629
421 668
421 671
421 683
421 706
421 711
421 732
421 736
421 746
421 753
421 760
421 776
421 778
422 423
422 481
422 494
422 509
422 528
422 531
422 539
422 546
422 549
422 553
422 554
422 555
422 558
422 565
422 567
422 585
422 589
422 597
422 605
422 608
422 622
422 628
422 639
422 646
422 664
422 676
422 688
422 697
422 698
422 701
422 728
422 735
422 740
422 764
422 767
422 771
422 773
422 777
422 796
422 930
423 438
423 446
423 453
423 457
423 459
423 466
423 467
423 469
423 477
423 481
423 509
423 520
423 523
423 529
423 548
423 579
423 595
423 602
423 603
423 604
423 615
423 622
423 634
423 637
423 639
423 643
423 677
423 685
423 705
423 717
423 728
423 736
423 740
423 758
423 765
423 771
423 789
423 794
424 440
424 472
424 480
424 502
424 508
424 512
424 515
424 526
424 533
424 542
424 545
424 561
424 581
424 585
424 600
424 602
424 607
424 623
424 628
424 641
424 658
424 659
424 668
424 708
424 723
424 735
424 736
424 739
424 746
424 749
424 752
424 755
424 765
424 770
424 791
424 1054
424 1345
425 448
425 450
425 453
425 456
425 470
425 474
425 490
425 509
425 513
425 526
425 533
425 543
425 546
425 553
425 559
425 567
425 592
425 618
425 624
425 639
425 683
425 686
425 694
425 700
425 718
425 722
425 723
425 733
425 743
425 750
425 764
425 767
425 775
425 782
425 789
425 791
425 793
425 1465
425 1887
426 438
426 442
426 444
426 450
426 459
426 473
426 480
426 506
426 519
426 534
426 539
426 541
426 549
426 572
426 581
426 592
426 593
426 602
426 606
426 620
426 626
426 637
426 642
426 652
426 656
426 664
426 683
426 693
426 715
426 721
426 728
426 743
426 776
426 782
426 783
426 787
426 797
427 429
427 439
427 443
427 497
427 507
427 510
427 520
427 525
427 528
427 533
427 540
427 546
427 561
427 566
427 574
427 578
427 588
427 589
427 619
427 630
427 643
427 653
427 673
427 675
427 691
427 705
427 714
427 723
427 730
427 745
427 747
427 749
427 765
427 773
427 779
427 785
427 793
427 1012
428 445
428 456
428 460
428 462
428 464
428 468
428 470
428 472
428 498
428 509
428 512
428 526
428 532
428 550
428 559
428 562
428 578
428 591
428 592
428 594
428 608
428 620
428 622
428 630
428 632
428 655
428 670
428 671
428 693
428 714
428 718
428 744
428 747
428 784
428 797
428 798
428 899
429 436
429 443
429 446
429 458
429 479
429 484
429 490
429 494
429 498
429 515
429 528
429 532
429 534
429 538
429 542
429 548
429 579
429 582
429 593
429 594
429 599
429 616
429 641
429 648
429 649
429 651
429 653
429 654
429 656
429 661
429 667
429 669
429 673
429 674
429 676
429 699
429 708
429 709
429 728
429 730
429 741
429 754
429 762
429 765
429 780
429 782
429 788
429 797
429 798
430 446
430 463
430 473
430 474
430 476
430 486
430 501
430 509
430 512
430 523
430 524
430 527
430 537
430 542
430 558
430 574
430 576
430 577
430 594
430 599
430 610
430 613
430 618
430 623
430 651
430 652
430 667
430 670
430 680
430 694
430 697
430 700
430 710
430 749
430 772
430 775
430 781
430 791
430 799
431 439
431 460
431 469
431 472
431 473
431 478
431 485
431 493
431 504
431 509
431 513
431 530
431 541
431 547
431 553
431 584
431 587
431 596
431 632
431 635
431 638
431 643
431 656
431 665
431 699
431 718
431 734
431 735
431 744
431 749
431 750
431 757
431 758
431 775
431 779
431 781
431 782
431 1316
431 1969
432 445
432 453
432 457
432 460
432 461
432 464
432 508
432 554
432 555
432 569
432 577
432 578
432 580
432 587
432 595
432 600
432 608
432 616
432 618
432 631
432 635
432 651
432 681
432 717
432 719
432 731
432 736
432 754
432 766
432 784
432 792
433 443
433 446
433 453
433 454
433 465
433 466
433 474
433 480
433 499
433 500
433 507
433 513
433 517
433 554
433 560
433 569
433 571
433 578
433 584
433 586
433 611
433 620
433 621
433 633
433 636
433 656
433 664
433 667
433 668
433 687
433 692
433 694
433 697
433 705
433 708
433 714
433 722
433 746
433 750
433 752
433 774
433 777
434 439
434 440
434 466
434 476
434 477
434 479
434 482
434 489
434 505
434 511
434 518
434 521
434 528
434 532
434 570
434 588
434 593
434 597
434 616
434 621
434 624
434 629
434 630
434 635
434 645
434 665
434 683
434 688
434 694
434 697
434 704
434 708
434 711
434 712
434 715
434 719
434 734
434 737
434 739
434 753
434 762
434 771
434 794
434 1541
435 438
435 445
435 455
435 490
435 493
435 504
435 517
435 521
435 536
435 537
435 540
435 541
435 546
435 548
435 555
435 572
435 578
435 582
435 593
435 595
435 622
435 630
435 634
435 643
435 660
435 663
435 667
435 678
435 684
435 685
435 696
435 726
435 739
435 744
435 758
435 760
435 1941
436 448
436 454
436 456
436 458
436 463
436 464
436 477
436 480
436 482
436 496
436 498
436 521
436 538
436 552
436 572
436 579
436 587
436 624
436 627
436 640
436 662
436 679
436 683
436 689
436 695
436 725
436 746
436 776
436 791
436 795
437 444
437 462
437 466
437 470
437 483
437 488
437 500
437 509
437 510
437 511
437 519
437 525
437 526
437 528
437 535
437 572
437 598
437 624
437 642
437 656
437 662
437 665
437 679
437 696
437 719
437 728
437 735
437 752
437 753
437 763
437 768
437 775
437 778
437 780
437 795
437 826
438 439
438 450
438 459
438 461
438 466
438 472
438 501
438 509
438 512
438 516
438 525
438 526
438 541
438 562
438 577
438 619
438 636
438 638
438 649
438 702
438 719
438 722
438 742
438 759
438 765
438 789
438 797
439 445
439 449
439 462
439 468
439 469
439 478
439 485
439 498
439 500
439 511
439 526
439 530
439 538
439 542
439 552
439 568
439 572
439 575
439 589
439 602
439 609
439 615
439 628
439 637
439 646
439 675
439 676
439 683
439 689
439 693
439 695
439 703
439 718
439 722
439 723
439 727
439 731
439 732
439 740
439 742
439 749
439 752
439 753
439 756
439 758
439 761
439 762
439 770
439 792
439 797
439 1090
439 1968
440 444
440 471
440 505
440 506
440 510
440 512
440 531
440 561
440 577
440 583
440 602
440 603
440 605
440 608
440 647
440 665
440 683
440 694
440 695
440 698
440 716
440 722
440 727
440 734
440 739
440 758
440 797
440 859
440 1148
440 1248
440 1950
441 442
441 452
441 457
441 458
441 466
441 485
441 488
441 489
441 498
441 508
441 509
441 514
441 528
441 539
441 553
441 562
441 574
441 575
441 577
441 588
441 598
441 608
441 627
441 635
441 640
441 650
441 664
441 670
441 673
441 674
441 684
441 688
441 689
441 698
441 718
441 757
441 758
441 759
441 763
441 775
441 793
441 1938
441 1965
442 456
442 462
442 465
442 466
442 475
442 478
442 480
442 482
442 500
442 532
442 546
442 583
442 585
442 590
442 596
442 603
442 611
442 614
442 625
442 627
442 629
442 638
442 641
442 660
442 663
442 674
442 700
442 707
442 710
442 736
442 752
442 760
442 766
442 784
442 1480
443 445
443 452
443 456
443 458
443 459
443 481
443 486
443 491
443 512
443 521
443 532
443 539
443 540
443 542
443 549
443 551
443 552
443 555
443 579
443 585
443 595
443 603
443 607
443 639
443 651
443 652
443 658
443 662
443 676
443 686
443 703
443 709
443 715
443 723
443 731
443 743
443 747
443 752
443 754
443 764
443 768
443 780
443 784
443 795
443 1677
444 462
444 483
444 500
444 503
444 511
444 538
444 554
444 555
444 564
444 570
444 578
444 586
444 590
444 598
444 609
444 632
444 633
444 634
444 641
444 665
444 695
444 699
444 700
444 713
444 718
444 719
444 727
444 733
444 734
444 751
444 754
444 1023
444 1431
444 1490
445 458
445 463
445 467
445 497
445 501
445 509
445 538
445 554
445 556
445 557
445 597
445 615
445 620
445 627
445 635
445 650
445 662
445 674
445 703
445 712
445 715
445 724
445 730
445 742
445 761
445 763
445 773
445 777
445 788
445 790
446 461
446 469
446 474
446 484
446 487
446 520
446 538
446 554
446 557
446 574
446 600
446 603
446 611
446 627
446 671
446 690
446 696
446 700
446 703
446 717
446 721
446 722
446 734
446 759
446 772
446 773
446 777
446 780
446 787
446 794
446 796
447 450
447 455
447 464
447 466
447 470
447 473
447 474
447 489
447 514
447 522
447 526
447 537
447 538
447 551
447 559
447 586
447 589
447 604
447 612
447 617
447 638
447 640
447 647
447 662
447 668
447 687
447 692
447 697
447 723
447 724
447 725
447 738
447 749
447 750
447 1351
447 1742
448 450
448 463
448 468
448 469
448 470
448 478
448 492
448 495
448 506
448 517
448 525
448 527
448 532
448 538
448 550
448 557
448 566
448 569
448 572
448 577
448 584
448 591
448 593
448 597
448 602
448 618
448 623
448 627
448 628
448 676
448 686
448 696
448 734
448 737
448 745
448 747
448 748
448 764
448 774
448 782
448 788
448 794
448 1012
449 454
449 457
449 474
449 478
449 482
449 489
449 495
449 500
449 501
449 512
449 522
449 531
449 547
449 556
449 565
449 586
449 592
449 595
449 601
449 603
449 610
449 613
449 623
449 633
449 647
449 662
449 668
449 679
449 683
449 685
449 688
449 699
449 701
449 718
449 730
449 743
449 766
449 770
449 777
449 823
449 1423
449 1452
450 462
450 467
450 480
450 484
450 489
450 500
450 503
450 507
450 517
450 519
450 520
450 524
450 526
450 545
450 546
450 576
450 578
450 587
450 600
450 644
450 666
450 671
450 677
450 683
450 694
450 727
450 741
450 759
450 785
450 796
450 799
450 975
450 1159
450 1186
450 1261
451 455
451 456
451 457
451 462
451 483
451 501
451 514
451 515
451 539
451 543
451 547
451 557
451 578
451 579
451 580
451 581
451 592
451 609
451 621
451 624
451 640
451 641
451 663
451 664
451 675
451 676
451 695
451 713
451 732
451 740
451 742
451 745
451 757
451 763
451 795
451 826
452 454
452 493
452 528
452 530
452 533
452 534
452 540
452 545
452 548
452 550
452 554
452 559
452 621
452 623
452 658
452 681
452 683
452 686
452 724
452 733
452 748
452 755
452 759
452 761
452 783
452 792
452 966
452 1142
452 1555
453 465
453 475
453 502
453 505
453 513
453 526
453 538
453 540
453 541
453 550
453 557
453 569
453 581
453 587
453 602
453 603
453 615
453 616
453 651
453 677
453 678
453 686
453 706
453 707
453 718
453 719
453 741
453 745
453 769
453 782
453 783
453 790
453 796
453 1246
454 461
454 491
454 523
454 531
454 556
454 590
454 596
454 616
454 620
454 643
454 657
454 691
454 703
454 713
454 728
454 749
454 784
454 793
454 1101
455 472
455 500
455 510
455 562
455 578
455 579
455 583
455 593
455 594
455 602
455 607
455 618
455 625
455 631
455 653
455 656
455 664
455 666
455 699
455 715
455 716
455 722
455 735
455 745
455 751
455 753
455 777
455 780
455 786
455 791
455 798
455 1121
455 1270
456 473
456 490
456 493
456 513
456 524
456 527
456 529
456 538
456 540
456 549
456 596
456 615
456 625
456 633
456 636
456 642
456 645
456 647
456 650
456 655
456 700
456 705
456 729
456 744
456 745
456 765
456 776
456 782
456 788
456 1350
457 463
457 466
457 470
457 471
457 476
457 500
457 524
457 534
457 547
457 550
457 559
457 570
457 588
457 589
457 606
457 624
457 665
457 666
457 669
457 677
457 681
457 699
457 703
457 707
457 714
457 720
457 723
457 726
457 729
457 742
457 745
457 747
457 754
457 778
457 779
457 789
457 1760
458 461
458 477
458 484
458 508
458 514
458 521
458 528
458 530
458 583
458 594
458 598
458 604
458 608
458 616
458 620
458 622
458 626
458 628
458 634
458 640
458 695
458 726
458 734
458 745
458 776
458 779
458 793
459 461
459 476
459 486
459 501
459 516
459 519
459 529
459 533
459 535
459 538
459 541
459 556
459 560
459 569
459 572
459 593
459 608
459 611
459 612
459 619
459 628
459 644
459 665
459 670
459 672
459 673
459 674
459 682
459 692
459 716
459 730
459 738
459 742
459 777
459 1291
459 1545
459 1649
460 470
460 471
460 475
460 478
460 493
460 494
460 510
460 511
460 512
460 531
460 533
460 534
460 550
460 554
460 560
460 567
460 579
460 580
460 590
460 592
460 596
460 599
460 603
460 607
460 613
460 625
460 646
460 652
460 674
460 684
460 693
460 696
460 750
460 760
460 765
460 767
460 779
460 802
460 1307
460 1399
460 1599
461 465
461 477
461 479
461 482
461 513
461 516
461 523
461 525
461 528
461 540
461 558
461 583
461 612
461 621
461 622
461 631
461 632
461 656
461 663
461 681
461 685
461 707
461 717
461 725
461 740
461 749
461 752
461 753
461 761
461 1457
461 1881
462 464
462 490
462 503
462 529
462 530
462 552
462 558
462 575
462 592
462 596
462 600
462 603
462 633
462 650
462 653
462 663
462 664
462 666
462 689
462 706
462 711
462 725
462 730
462 731
462 761
462 772
462 773
462 797
463 467
463 476
463 497
463 503
463 512
463 514
463 521
463 527
463 530
463 543
463 550
463 557
463 569
463 580
463 593
463 595
463 602
463 607
463 611
463 627
463 640
463 641
463 650
463 674
463 682
463 692
463 699
463 707
463 715
463 716
463 726
463 751
463 752
463 761
463 779
463 780
463 797
463 1441
464 476
464 489
464 493
464 499
464 521
464 537
464 538
464 562
464 564
464 585
464 609
464 620
464 624
464 634
464 635
464 666
464 669
464 685
464 705
464 709
464 711
464 716
464 717
464 718
464 735
464 741
464 749
464 751
464 760
464 767
464 773
464 798
465 467
465 473
465 479
465 488
465 492
465 505
465 516
465 526
465 528
465 540
465 579
465 580
465 582
465 587
465 597
465 608
465 621
465 634
465 653
465 655
465 658
465 666
465 672
465 674
465 686
465 694
465 717
465 738
465 742
465 752
465 757
465 759
465 770
465 786
465 790
465 792
465 793
465 1287
465 1775
466 478
466 496
466 514
466 520
466 531
466 538
466 541
466 549
466 550
466 553
466 554
466 560
466 571
466 594
466 608
466 613
466 631
466 632
466 634
466 637
466 650
466 662
466 679
466 691
466 698
466 721
466 743
466 744
466 773
466 774
466 786
466 895
466 958
467 475
467 476
467 482
467 505
467 515
467 518
467 519
467 521
467 534
467 589
467 604
467 611
467 635
467 657
467 668
467 673
467 703
467 721
467 730
467 742
467 747
467 763
467 764
467 769
467 775
467 776
467 799
467 1783
468 469
468 471
468 483
468 487
468 495
468 497
468 502
468 530
468 542
468 549
468 554
468 559
468 560
468 568
468 597
468 599
468 615
468 642
468 651
468 654
468 673
468 694
468 696
468 700
468 719
468 722
468 731
468 744
468 760
468 769
468 770
468 778
468 785
468 787
468 904
468 1728
469 470
469 476
469 507
469 517
469 528
469 529
469 532
469 538
469 547
469 592
469 606
469 633
469 642
469 643
469 647
469 653
469 655
469 658
469 676
469 682
469 685
469 698
469 699
469 702
469 739
469 742
469 743
469 859
469 1199
469 1244
469 1633
470 486
470 494
470 497
470 505
470 513
470 518
470 532
470 540
470 554
470 560
470 562
470 563
470 599
470 609
470 613
470 614
470 637
470 652
470 688
470 692
470 703
470 710
470 713
470 723
470 728
470 729
470 753
470 754
470 777
470 779
470 783
470 1042
470 1121
470 1214
470 1542
471 489
471 494
471 509
471 525
471 527
471 536
471 537
471 548
471 574
471 581
471 592
471 595
471 606
471 621
471 627
471 641
471 643
471 649
471 650
471 652
471 653
471 660
471 661
471 672
471 695
471 698
471 702
471 705
471 745
471 746
471 748
471 750
471 753
471 765
471 769
471 784
471 788
471 793
471 947
471 1190
471 1228
472 492
472 520
472 536
472 541
472 554
472 556
472 564
472 575
472 581
472 584
472 599
472 602
472 628
472 630
472 634
472 638
472 655
472 658
472 670
472 672
472 673
472 688
472 690
472 700
472 713
472 718
472 726
472 731
472 749
472 757
472 770
472 783
472 792
472 793
472 1228
473 491
473 492
473 502
473 526
473 529
473 549
473 563
473 566
473 579
473 588
473 589
473 595
473 603
473 605
473 607
473 608
473 625
473 627
473 630
473 631
473 650
473 651
473 667
473 678
473 682
473 683
473 685
473 688
473 693
473 698
473 713
473 727
473 741
473 745
473 778
473 785
473 796
474 482
474 486
474 493
474 497
474 498
474 545
474 548
474 551
474 554
474 565
474 568
474 572
474 573
474 585
474 589
474 613
474 617
474 621
474 625
474 648
474 656
474 660
474 663
474 719
474 730
474 736
474 767
474 773
474 782
474 788
474 789
475 497
475 499
475 506
475 507
475 515
475 533
475 540
475 544
475 547
475 549
475 550
475 551
475 582
475 588
475 601
475 604
475 617
475 636
475 654
475 680
475 682
475 697
475 707
475 731
475 733
475 736
475 743
475 783
475 789
475 790
476 478
476 511
476 537
476 539
476 541
476 549
476 565
476 572
476 599
476 605
476 610
476 615
476 634
476 647
476 656
476 658
476 683
476 685
476 692
476 720
476 755
476 761
476 775
476 786
476 787
476 796
476 799
476 1524
477 516
477 521
477 525
477 537
477 549
477 551
477 580
477 584
477 600
477 609
477 612
477 616
477 631
477 641
477 648
477 660
477 670
477 707
477 714
477 715
477 716
477 720
477 723
477 728
477 734
477 735
477 740
477 747
477 753
477 768
477 775
477 777
477 784
477 792
477 795
477 796
478 487
478 491
478 496
478 500
478 514
478 516
478 519
478 533
478 538
478 550
478 568
478 570
478 573
478 602
478 614
478 639
478 642
478 643
478 646
478 650
478 652
478 680
478 682
478 699
478 710
478 727
478 732
478 756
478 757
478 758
478 764
478 768
478 781
478 785
478 792
478 1505
479 498
479 506
479 528
479 546
479 567
479 582
479 588
479 593
479 608
479 628
479 640
479 665
479 668
479 670
479 674
479 675
479 678
479 696
479 732
479 758
479 759
479 770
479 884
479 1438
480 485
480 491
480 504
480 520
480 527
480 528
480 543
480 558
480 569
480 575
480 591
480 599
480 602
480 628
480 646
480 647
480 656
480 664
480 676
480 680
480 692
480 696
480 700
480 731
480 737
480 744
480 749
480 750
480 755
480 772
480 779
480 780
480 795
480 796
480 798
480 1051
480 1602
481 482
481 486
481 513
481 524
481 528
481 534
481 585
481 592
481 595
481 597
481 607
481 619
481 633
481 638
481 659
481 660
481 664
481 703
481 704
481 734
481 736
481 738
481 756
481 761
481 774
481 841
482 483
482 506
482 512
482 540
482 545
482 549
482 596
482 606
482 607
482 610
482 613
482 615
482 616
482 646
482 652
482 663
482 667
482 670
482 673
482 678
482 695
482 704
482 710
482 724
482 734
482 738
482 741
482 747
482 755
482 761
482 775
482 782
482 788
483 489
483 496
483 500
483 507
483 512
483 519
483 521
483 533
483 554
483 563
483 568
483 574
483 575
483 577
483 586
483 589
483 595
483 597
483 611
483 615
483 618
483 622
483 625
483 637
483 642
483 651
483 656
483 659
483 660
483 674
483 691
483 696
483 725
483 730
483 742
483 744
483 759
483 769
483 774
483 778
483 781
483 903
483 1607
484 492
484 499
484 500
484 514
484 517
484 525
484 531
484 547
484 563
484 569
484 570
484 571
484 578
484 579
484 597
484 622
484 624
484 634
484 640
484 654
484 669
484 673
484 681
484 689
484 705
484 710
484 714
484 734
484 750
484 754
484 787
484 790
484 1401
484 1413
484 1432
485 528
485 531
485 535
485 542
485 546
485 547
485 562
485 568
485 571
485 573
485 584
485 595
485 602
485 603
485 609
485 612
485 632
485 647
485 653
485 683
485 694
485 706
485 722
485 741
485 751
485 766
485 779
485 783
485 786
486 507
486 513
486 514
486 521
486 522
486 524
486 526
486 531
486 562
486 568
486 571
486 576
486 582
486 586
486 588
486 589
486 617
486 627
486 634
486 635
486 647
486 661
486 686
486 696
486 727
486 735
486 748
486 749
486 755
486 783
486 786
486 791
486 1206
487 502
487 505
487 512
487 526
487 532
487 534
487 541
487 542
487 551
487 558
487 562
487 572
487 607
487 630
487 641
487 644
487 648
487 652
487 676
487 696
487 697
487 730
487 742
487 751
487 754
487 755
487 758
487 762
487 776
487 782
487 1427
487 1478
488 491
488 492
488 499
488 503
488 515
488 526
488 532
488 541
488 554
488 558
488 564
488 569
488 574
488 596
488 601
488 602
488 605
488 618
488 622
488 640
488 647
488 654
488 668
488 679
488 681
488 700
488 701
488 715
488 717
488 725
488 748
488 763
488 767
488 772
488 774
488 1022
488 1649
489 495
489 496
489 506
489 511
489 513
489 515
489 527
489 536
489 537
489 541
489 588
489 590
489 611
489 613
489 616
489 627
489 628
489 641
489 656
489 659
489 660
489 663
489 693
489 696
489 699
489 707
489 708
489 720
489 733
489 744
489 754
489 759
489 762
489 765
489 766
489 775
489 779
489 795
489 796
489 1449
490 547
490 556
490 558
490 560
490 563
490 589
490 603
490 611
490 615
490 620
490 631
490 634
490 642
490 651
490 655
490 678
490 699
490 707
490 727
490 738
490 753
490 765
490 767
490 788
490 790
490 1547
490 1844
491 534
491 536
491 538
491 542
491 547
491 553
491 554
491 558
491 564
491 569
491 586
491 593
491 633
491 634
491 654
491 655
491 658
491 672
491 700
491 702
491 712
491 741
491 771
491 777
491 795
492 507
492 509
492 526
492 533
492 536
492 548
492 557
492 559
492 574
492 578
492 587
492 623
492 628
492 631
492 649
492 660
492 661
492 688
492 693
492 703
492 717
492 728
492 732
492 738
492 742
492 744
492 777
492 778
493 496
493 498
493 512
493 517
493 523
493 527
493 531
493 553
493 554
493 574
493 586
493 602
493 607
493 609
493 610
493 625
493 626
493 649
493 666
493 681
493 687
493 697
493 699
493 703
493 704
493 710
493 741
493 751
493 758
493 774
493 777
493 780
493 782
493 794
493 870
494 499
494 512
494 523
494 538
494 546
494 566
494 590
494 592
494 608
494 609
494 615
494 641
494 647
494 660
494 683
494 694
494 703
494 710
494 711
494 721
494 726
494 727
494 751
494 752
494 753
494 761
494 774
494 777
494 795
495 509
495 514
495 523
495 528
495 531
495 539
495 541
495 543
495 550
495 571
495 599
495 616
495 621
495 622
495 637
495 643
495 646
495 648
495 652
495 667
495 683
495 697
495 700
495 704
495 708
495 715
495 718
495 733
495 734
495 759
495 791
495 1452
495 1880
496 509
496 522
496 565
496 580
496 586
496 593
496 598
496 618
496 625
496 626
496 628
496 651
496 669
496 707
496 734
496 736
496 737
496 740
496 749
496 750
496 772
496 773
496 777
496 787
496 799
496 1386
497 501
497 523
497 544
497 548
497 549
497 569
497 572
497 580
497 582
497 594
497 612
497 619
497 620
497 628
497 631
497 634
497 649
497 687
497 691
497 695
497 719
497 727
497 740
497 747
497 754
497 755
497 776
497 785
497 791
498 502
498 508
498 522
498 557
498 587
498 593
498 594
498 634
498 664
498 676
498 686
498 690
498 717
498 722
498 723
498 724
498 728
498 733
498 747
498 748
498 749
498 758
498 761
498 769
498 777
498 784
498 791
498 795
498 1877
499 500
499 505
499 511
499 517
499 518
499 531
499 537
499 571
499 583
499 588
499 596
499 598
499 608
499 619
499 628
499 629
499 656
499 671
499 700
499 704
499 708
499 713
499 714
499 719
499 735
499 737
499 738
499 742
499 750
499 754
499 758
499 770
499 773
499 790
499 1789
500 517
500 531
500 537
500 554
500 555
500 559
500 576
500 579
500 581
500 585
500 605
500 622
500 641
500 643
500 656
500 658
500 666
500 670
500 671
500 679
500 683
500 684
500 706
500 754
500 758
500 759
500 781
500 796
500 798
500 1798
501 514
501 516
501 524
501 529
501 540
501 549
501 556
501 567
501 575
501 578
501 588
501 589
501 604
501 605
501 612
501 615
501 616
501 624
501 630
501 641
501 647
501 658
501 662
501 663
501 668
501 678
501 689
501 691
501 694
501 719
501 731
501 735
501 740
501 762
501 783
501 785
501 1047
502 503
502 515
502 526
502 531
502 585
502 602
502 638
502 648
502 651
502 660
502 667
502 669
502 670
502 671
502 672
502 674
502 693
502 701
502 714
502 725
502 728
502 740
502 765
502 773
502 782
502 792
503 510
503 525
503 530
503 531
503 537
503 548
503 566
503 575
503 597
503 603
503 613
503 619
503 620
503 626
503 628
503 634
503 657
503 665
503 676
503 685
503 691
503 695
503 703
503 730
503 754
503 755
503 756
503 766
503 769
503 780
503 785
503 790
503 798
503 1167
503 1814
504 510
504 512
504 513
504 532
504 535
504 550
504 556
504 570
504 580
504 586
504 630
504 636
504 670
504 671
504 673
504 675
504 689
504 698
504 707
504 718
504 736
504 739
504 741
504 747
504 756
504 766
504 775
504 780
504 785
504 792
504 1052
505 510
505 530
505 532
505 536
505 539
505 562
505 568
505 578
505 613
505 620
505 638
505 655
505 663
505 670
505 679
505 685
505 695
505 711
505 717
505 721
505 766
505 779
505 781
505 783
505 787
505 851
505 853
506 507
506 514
506 520
506 522
506 523
506 537
506 538
506 539
506 550
506 553
506 574
506 581
506 587
506 592
506 602
506 604
506 622
506 623
506 624
506 627
506 630
506 631
506 645
506 656
506 657
506 675
506 676
506 680
506 684
506 696
506 698
506 709
506 720
506 722
506 730
506 734
506 744
506 759
506 760
506 762
506 772
506 781
506 793
507 512
507 532
507 537
507 553
507 554
507 564
507 581
507 589
507 594
507 600
507 601
507 604
507 608
507 614
507 616
507 623
507 631
507 633
507 635
507 638
507 646
507 664
507 669
507 673
507 687
507 702
507 703
507 711
507 721
507 731
507 748
507 749
507 790
508 515
508 530
508 532
508 536
508 537
508 548
508 561
508 564
508 577
508 580
508 581
508 624
508 635
508 639
508 644
508 645
508 647
508 649
508 668
508 672
508 705
508 719
508 729
508 735
508 751
508 756
508 757
508 760
508 772
508 774
508 799
508 811
509 510
509 524
509 528
509 533
509 542
509 555
509 556
509 566
509 571
509 592
509 601
509 632
509 663
509 685
509 691
509 694
509 737
509 742
509 744
509 750
509 753
509 760
509 793
510 516
510 522
510 530
510 544
510 586
510 591
510 595
510 610
510 622
510 629
510 633
510 649
510 663
510 672
510 680
510 690
510 692
510 707
510 728
510 738
510 745
510 758
510 766
510 776
510 781
510 784
510 792
510 799
510 1054
511 516
511 534
511 536
511 545
511 555
511 556
511 557
511 601
511 603
511 609
511 615
511 621
511 634
511 644
511 645
511 650
511 664
511 708
511 711
511 723
511 732
511 752
511 766
511 768
511 773
511 955
512 523
512 544
512 546
512 556
512 569
512 584
512 586
512 587
512 598
512 614
512 622
512 633
512 634
512 645
512 650
512 665
512 671
512 682
512 685
512 690
512 692
512 701
512 710
512 744
512 745
512 760
512 767
512 789
512 795
512 1245
512 1459
513 539
513 540
513 552
513 564
513 565
513 567
513 588
513 595
513 604
513 614
513 631
513 646
513 653
513 657
513 658
513 660
513 672
513 687
513 698
513 699
513 700
513 712
513 745
513 749
513 756
513 758
513 770
513 784
513 972
513 1928
514 515
514 526
514 530
514 532
514 536
514 568
514 571
514 575
514 612
514 629
514 665
514 668
514 680
514 686
514 701
514 703
514 733
514 764
514 765
514 766
514 770
514 776
514 788
514 797
514 798
514 1110
515 517
515 523
515 543
515 559
515 569
515 591
515 599
515 616
515 626
515 629
515 636
515 655
515 661
515 667
515 668
515 679
515 682
515 683
515 685
515 707
515 713
515 717
515 723
515 724
515 737
515 762
515 765
515 773
515 782
515 1252
516 552
516 554
516 571
516 572
516 596
516 607
516 614
516 627
516 640
516 647
516 653
516 671
516 680
516 682
516 687
516 693
516 703
516 710
516 711
516 723
516 724
516 726
516 735
516 741
516 757
516 762
516 772
516 773
516 776
516 896
517 522
517 523
517 532
517 570
517 597
517 611
517 614
517 617
517 619
517 642
517 669
517 677
517 683
517 684
517 685
517 687
517 699
517 749
517 755
517 759
517 761
517 768
517 775
517 789
517 796
517 798
517 933
518 527
518 546
518 552
518 555
518 559
518 561
518 563
518 566
518 568
518 573
518 576
518 587
518 607
518 614
518 617
518 633
518 646
518 650
518 672
518 673
518 677
518 681
518 682
518 693
518 694
518 698
518 703
518 711
518 730
518 732
518 734
518 743
518 754
518 756
518 758
518 788
518 793
518 797
518 963
519 520
519 522
519 541
519 545
519 568
519 606
519 622
519 635
519 648
519 658
519 663
519 680
519 706
519 740
519 750
519 752
519 753
519 755
519 763
519 775
519 776
519 777
519 788
519 794
519 796
519 983
519 1557
520 539
520 548
520 552
520 554
520 572
520 586
520 596
520 628
520 633
520 637
520 641
520 646
520 653
520 661
520 663
520 669
520 681
520 685
520 697
520 728
520 751
520 762
520 773
520 782
520 783
520 785
521 522
521 525
521 545
521 552
521 558
521 567
521 575
521 591
521 596
521 603
521 625
521 633
521 637
521 644
521 652
521 657
521 672
521 673
521 686
521 691
521 692
521 706
521 711
521 715
521 729
521 733
521 776
521 777
521 780
521 784
521 791
521 799
521 1418
522 529
522 536
522 538
522 544
522 546
522 553
522 569
522 587
522 607
522 610
522 617
522 618
522 630
522 632
522 643
522 648
522 662
522 667
522 669
522 673
522 683
522 688
522 690
522 692
522 708
522 718
522 735
522 765
522 770
522 774
522 775
522 777
522 779
522 789
522 795
523 542
523 554
523 560
523 571
523 605
523 621
523 624
523 629
523 634
523 644
523 656
523 660
523 674
523 675
523 684
523 688
523 702
523 715
523 727
523 728
523 777
523 783
523 787
523 1601
524 555
524 576
524 586
524 592
524 597
524 604
524 625
524 628
524 652
524 671
524 681
524 687
524 701
524 706
524 719
524 730
524 738
524 745
524 755
524 760
524 764
524 778
524 782
524 784
524 1398
524 1622
525 530
525 540
525 545
525 573
525 591
525 621
525 627
525 638
525 660
525 677
525 694
525 714
525 726
525 734
525 754
525 766
525 771
525 775
525 780
525 781
525 1501
526 572
526 576
526 595
526 596
526 603
526 607
526 619
526 623
526 632
526 635
526 636
526 637
526 656
526 658
526 664
526 677
526 678
526 679
526 686
526 695
526 696
526 705
526 712
526 720
526 731
526 748
526 753
526 762
526 773
526 775
526 786
526 792
526 799
526 1213
527 534
527 542
527 564
527 566
527 568
527 572
527 589
527 599
527 600
527 601
527 605
527 606
527 609
527 621
527 632
527 633
527 638
527 642
527 644
527 660
527 674
527 685
527 689
527 715
527 722
527 729
527 746
527 750
527 751
527 760
527 766
527 769
527 773
527 776
527 784
527 799
527 1125
528 540
528 555
528 570
528 578
528 579
528 580
528 581
528 587
528 590
528 599
528 604
528 605
528 606
528 608
528 609
528 639
528 685
528 689
528 700
528 709
528 712
528 725
528 732
528 753
528 762
528 766
528 767
528 781
528 788
528 991
528 1863
528 1935
529 553
529 565
529 574
529 600
529 606
529 626
529 629
529 635
529 644
529 661
529 682
529 689
529 705
529 720
529 728
529 740
529 747
529 750
529 761
529 765
529 777
529 778
529 780
529 789
529 799
530 553
530 575
530 577
530 598
530 614
530 619
530 631
530 662
530 664
530 674
530 675
530 676
530 690
530 709
530 711
530 714
530 738
530 740
530 743
530 779
530 783
530 787
530 884
530 974
530 1278
530 1817
531 543
531 558
531 560
531 561
531 570
531 584
531 591
531 595
531 607
531 612
531 625
531 630
531 642
531 671
531 687
531 694
531 701
531 714
531 715
531 725
531 730
531 741
531 746
531 751
531 762
531 771
531 786
532 533
532 572
532 608
532 627
532 629
532 638
532 647
532 666
532 669
532 672
532 683
532 684
532 693
532 698
532 704
532 709
532 720
532 721
532 724
532 730
532 741
532 742
532 745
532 751
532 754
532 782
532 787
532 1740
533 540
533 542
533 560
533 565
533 590
533 591
533 596
533 606
533 628
533 637
533 652
533 657
533 665
533 685
533 686
533 695
533 698
533 700
533 715
533 728
533 733
533 735
533 763
533 769
533 798
534 540
534 547
534 557
534 558
534 576
534 580
534 592
534 603
534 607
534 615
534 616
534 644
534 662
534 665
534 671
534 681
534 687
534 688
534 701
534 722
534 734
534 737
534 756
534 761
534 764
534 769
534 780
534 786
534 832
534 1392
535 538
535 543
535 549
535 556
535 562
535 564
535 588
535 603
535 605
535 629
535 656
535 663
535 679
535 697
535 710
535 721
535 734
535 748
535 756
535 789
535 792
535 794
536 545
536 555
536 556
536 557
536 571
536 573
536 575
536 576
536 587
536 592
536 595
536 622
536 640
536 643
536 647
536 653
536 654
536 668
536 722
536 733
536 741
536 749
536 759
536 763
536 785
537 562
537 568
537 572
537 589
537 606
537 620
537 636
537 639
537 640
537 642
537 643
537 654
537 656
537 657
537 671
537 684
537 696
537 701
537 702
537 729
537 739
537 763
537 1492
538 551
538 555
538 558
538 564
538 567
538 571
538 579
538 580
538 581
538 596
538 604
538 608
538 614
538 621
538 623
538 624
538 625
538 635
538 638
538 648
538 650
538 657
538 678
538 681
538 682
538 695
538 699
538 719
538 723
538 724
538 726
538 736
538 740
538 764
538 765
538 766
538 773
538 882
538 906
538 1047
539 544
539 546
539 557
539 568
539 602
539 606
539 614
539 625
539 626
539 634
539 649
539 651
539 652
539 655
539 663
539 667
539 675
539 680
539 700
539 719
539 730
539 736
539 744
539 762
539 765
539 784
539 789
539 790
539 799
539 1192
540 546
540 554
540 555
540 556
540 560
540 583
540 601
540 667
540 670
540 680
540 683
540 694
540 700
540 736
540 753
540 758
540 759
540 761
540 778
540 784
540 1565
541 544
541 550
541 556
541 565
541 570
541 574
541 588
541 601
541 607
541 615
541 616
541 628
541 635
541 641
541 657
541 672
541 674
541 676
541 698
541 710
541 726
541 727
541 728
541 730
541 733
541 740
541 766
541 778
541 783
541 785
542 545
542 548
542 576
542 577
542 578
542 583
542 598
542 602
542 603
542 611
542 621
542 637
542 670
542 704
542 713
542 730
542 761
542 773
542 783
542 787
542 797
542 1337
543 567
543 576
543 596
543 604
543 608
543 610
543 613
543 617
543 618
543 636
543 645
543 648
543 653
543 682
543 690
543 705
543 709
543 710
543 714
543 715
543 731
543 744
543 757
543 764
543 775
543 781
543 782
543 790
543 791
543 795
544 548
544 559
544 560
544 562
544 579
544 589
544 590
544 600
544 608
544 611
544 618
544 623
544 629
544 634
544 640
544 641
544 650
544 662
544 664
544 665
544 666
544 671
544 672
544 678
544 691
544 698
544 700
544 703
544 719
544 721
544 722
544 757
544 760
544 763
544 770
544 773
544 778
544 784
544 796
544 1056
544 1433
544 1759
545 552
545 559
545 565
545 572
545 573
545 582
545 589
545 597
545 616
545 635
545 637
545 644
545 655
545 656
545 660
545 667
545 687
545 699
545 708
545 710
545 723
545 736
545 750
545 790
545 791
545 799
546 575
546 577
546 589
546 605
546 618
546 620
546 634
546 649
546 656
546 660
546 662
546 664
546 673
546 682
546 685
546 693
546 709
546 728
546 742
546 762
546 769
546 799
547 549
547 554
547 555
547 577
547 594
547 601
547 606
547 628
547 643
547 665
547 709
547 711
547 722
547 742
547 745
547 754
547 767
547 775
547 790
547 798
547 1220
548 551
548 558
548 569
548 570
548 581
548 597
548 603
548 626
548 662
548 672
548 680
548 684
548 690
548 699
548 725
548 726
548 739
548 753
548 760
548 761
548 763
548 781
548 784
548 788
548 789
548 790
548 797
548 1421
548 1546
549 571
549 583
549 585
549 595
549 599
549 605
549 606
549 610
549 615
549 617
549 630
549 634
549 638
549 648
549 662
549 667
549 676
549 688
549 706
549 710
549 712
549 719
549 738
549 744
549 752
549 762
549 764
549 774
549 777
549 779
549 783
549 799
549 1345
550 559
550 569
550 575
550 577
550 597
550 598
550 614
550 617
550 623
550 640
550 665
550 680
550 688
550 700
550 701
550 714
550 732
550 737
550 739
550 752
550 753
550 758
550 784
550 1122
551 560
551 567
551 568
551 578
551 581
551 584
551 588
551 591
551 598
551 605
551 621
551 632
551 642
551 646
551 664
551 685
551 702
551 710
551 720
551 726
551 731
551 732
551 735
551 745
551 747
551 760
551 768
551 771
551 786
551 791
551 1063
551 1329
552 554
552 563
552 564
552 570
552 577
552 578
552 620
552 643
552 649
552 656
552 668
552 672
552 681
552 713
552 714
552 724
552 729
552 730
552 731
552 736
552 737
552 746
552 747
552 749
552 757
552 758
552 769
552 781
552 1314
553 565
553 602
553 628
553 630
553 642
553 667
553 691
553 699
553 700
553 704
553 712
553 713
553 721
553 723
553 737
553 740
553 755
553 766
553 776
553 777
553 785
553 788
553 791
554 560
554 565
554 571
554 573
554 589
554 594
554 603
554 606
554 622
554 630
554 645
554 656
554 665
554 670
554 686
554 719
554 721
554 723
554 743
554 744
554 761
554 875
554 1504
555 568
555 571
555 580
555 582
555 597
555 613
555 622
555 634
555 635
555 643
555 645
555 650
555 656
555 658
555 667
555 699
555 706
555 729
555 735
555 738
555 749
555 751
555 768
555 784
555 791
555 1598
556 605
556 607
556 616
556 644
556 653
556 654
556 667
556 672
556 681
556 687
556 688
556 689
556 690
556 693
556 722
556 730
556 756
556 761
556 1088
556 1867
556 1912
557 558
557 573
557 622
557 639
557 640
557 641
557 650
557 657
557 674
557 676
557 685
557 692
557 696
557 711
557 712
557 714
557 717
557 718
557 722
557 740
557 745
557 755
557 756
557 758
557 763
557 790
558 560
558 568
558 573
558 585
558 603
558 606
558 683
558 686
558 713
558 720
558 725
558 739
558 749
558 755
558 757
558 769
558 772
558 777
558 787
558 796
558 800
558 1416
559 584
559 587
559 590
559 593
559 602
559 622
559 623
559 648
559 654
559 669
559 677
559 683
559 695
559 700
559 703
559 708
559 715
559 744
559 769
559 780
559 792
559 794
559 1097
559 1900
560 572
560 577
560 580
560 581
560 586
560 597
560 611
560 621
560 622
560 628
560 634
560 650
560 665
560 676
560 682
560 683
560 687
560 693
560 694
560 699
560 702
560 703
560 708
560 711
560 713
560 719
560 736
560 754
560 755
560 758
560 765
560 770
560 773
560 777
560 786
560 1695
560 1799
561 573
561 609
561 617
561 618
561 623
561 638
561 644
561 649
561 650
561 658
561 662
561 675
561 687
561 689
561 699
561 724
561 747
561 782
561 790
561 1789
562 568
562 580
562 586
562 593
562 594
562 602
562 610
562 614
562 619
562 622
562 650
562 652
562 653
562 660
562 664
562 671
562 688
562 703
562 713
562 714
562 717
562 725
562 746
562 787
562 1097
563 567
563 568
563 572
563 576
563 583
563 603
563 604
563 612
563 617
563 630
563 642
563 650
563 652
563 675
563 692
563 697
563 699
563 719
563 731
563 741
563 749
563 751
563 792
563 793
563 798
563 990
563 1782
564 567
564 579
564 580
564 589
564 591
564 596
564 602
564 610
564 612
564 626
564 630
564 637
564 642
564 648
564 649
564 652
564 656
564 657
564 669
564 676
564 680
564 686
564 687
564 706
564 707
564 718
564 745
564 760
564 767
564 771
564 773
564 780
564 781
564 786
564 791
564 792
564 1098
565 589
565 596
565 601
565 627
565 628
565 638
565 639
565 642
565 647
565 648
565 681
565 697
565 724
565 749
565 759
565 771
565 772
565 774
565 775
565 784
565 1278
565 1859
565 1871
566 568
566 579
566 593
566 596
566 599
566 601
566 610
566 611
566 630
566 637
566 655
566 663
566 683
566 697
566 703
566 717
566 720
566 722
566 732
566 733
566 740
566 745
566 755
566 766
566 780
566 790
567 573
567 574
567 585
567 602
567 622
567 639
567 640
567 643
567 646
567 650
567 651
567 664
567 672
567 679
567 703
567 704
567 713
567 729
567 749
567 750
567 755
567 762
567 771
567 774
567 778
567 787
567 796
567 815
568 576
568 580
568 608
568 619
568 622
568 625
568 666
568 673
568 684
568 692
568 716
568 728
568 729
568 738
568 742
568 767
568 774
568 784
568 1450
568 1488
568 1763
569 581
569 582
569 583
569 584
569 601
569 618
569 621
569 626
569 635
569 655
569 658
569 672
569 674
569 686
569 689
569 695
569 696
569 698
569 700
569 702
569 703
569 704
569 705
569 716
569 720
569 725
569 729
569 758
569 778
569 888
570 571
570 581
570 583
570 587
570 604
570 607
570 610
570 615
570 634
570 639
570 647
570 666
570 681
570 686
570 687
570 693
570 706
570 712
570 713
570 714
570 723
570 728
570 740
570 749
570 757
570 762
570 764
571 581
571 620
571 625
571 634
571 644
571 657
571 675
571 682
571 690
571 714
571 717
571 722
571 729
571 731
571 745
571 748
571 749
571 756
571 766
571 780
571 799
571 1736
571 1925
572 579
572 588
572 593
572 600
572 601
572 618
572 621
572 627
572 660
572 682
572 687
572 695
572 712
572 720
572 723
572 738
572 742
572 757
572 758
572 761
572 771
572 772
572 778
572 780
572 783
572 785
572 790
572 796
572 1781
573 586
573 589
573 625
573 629
573 630
573 631
573 632
573 641
573 643
573 662
573 666
573 669
573 679
573 689
573 691
573 705
573 725
573 728
573 730
573 755
573 758
573 765
573 775
573 783
573 787
574 579
574 591
574 623
574 635
574 638
574 644
574 659
574 663
574 692
574 715
574 722
574 731
574 742
574 744
574 746
574 755
574 765
574 779
574 798
574 848
574 1413
575 578
575 582
575 602
575 612
575 628
575 631
575 636
575 644
575 651
575 652
575 660
575 663
575 681
575 687
575 711
575 715
575 763
575 767
575 777
575 1607
576 581
576 585
576 590
576 592
576 594
576 600
576 601
576 603
576 607
576 614
576 628
576 637
576 641
576 644
576 647
576 655
576 677
576 679
576 681
576 685
576 688
576 695
576 697
576 704
576 719
576 726
576 727
576 730
576 739
576 764
576 770
576 771
576 783
576 791
576 832
576 1470
577 603
577 604
577 611
577 617
577 624
577 629
577 634
577 642
577 647
577 652
577 653
577 656
577 657
577 662
577 664
577 669
577 672
577 697
577 718
577 752
577 760
577 761
577 770
577 794
577 797
577 908
577 1432
577 1698
577 1848
577 1881
578 584
578 601
578 602
578 607
578 616
578 621
578 645
578 647
578 668
578 684
578 692
578 711
578 727
578 734
578 735
578 744
578 750
578 756
578 757
578 765
578 767
578 771
578 788
578 796
578 1014
578 1748
579 591
579 598
579 626
579 631
579 634
579 654
579 667
579 670
579 671
579 673
579 675
579 677
579 686
579 695
579 698
579 709
579 718
579 740
579 744
579 752
579 774
579 775
579 1806
579 1919
580 581
580 591
580 595
580 596
580 615
580 619
580 625
580 634
580 644
580 650
580 664
580 674
580 690
580 692
580 693
580 702
580 720
580 743
580 768
580 788
581 590
581 613
581 625
581 629
581 633
581 654
581 658
581 659
581 716
581 727
581 738
581 748
581 752
581 790
581 795
582 591
582 592
582 594
582 595
582 615
582 631
582 639
582 643
582 661
582 664
582 681
582 686
582 687
582 699
582 700
582 705
582 708
582 720
582 721
582 726
582 740
582 741
582 743
582 755
582 757
582 762
582 766
582 776
582 787
582 791
582 798
582 1202
582 1862
583 584
583 592
583 637
583 639
583 655
583 684
583 689
583 690
583 706
583 709
583 760
583 766
583 771
583 773
583 780
583 783
583 788
583 795
584 586
584 590
584 592
584 594
584 601
584 607
584 618
584 676
584 691
584 699
584 700
584 711
584 716
584 717
584 718
584 728
584 736
584 737
584 738
584 746
584 748
584 755
584 770
584 771
584 780
584 784
584 786
584 934
584 1050
585 590
585 595
585 619
585 629
585 630
585 631
585 635
585 664
585 666
585 677
585 679
585 689
585 692
585 698
585 700
585 702
585 718
585 719
585 733
585 752
585 789
585 795
585 796
585 934
586 613
586 615
586 623
586 624
586 634
586 636
586 637
586 649
586 668
586 673
586 684
586 725
586 728
586 731
586 740
586 741
586 752
586 776
586 787
586 869
586 1291
586 1660
586 1986
587 597
587 602
587 605
587 612
587 614
587 620
587 621
587 660
587 662
587 670
587 679
587 695
587 722
587 729
587 732
587 769
587 778
587 780
587 781
587 799
587 1118
587 1492
588 589
588 591
588 608
588 611
588 637
588 642
588 648
588 652
588 657
588 662
588 667
588 677
588 686
588 692
588 693
588 707
588 708
588 714
588 715
588 721
588 736
588 746
588 757
588 1338
589 595
589 606
589 608
589 623
589 626
589 631
589 648
589 661
589 662
589 675
589 677
589 693
589 705
589 706
589 707
589 708
589 710
589 724
589 728
589 736
589 741
589 745
589 746
589 747
589 762
589 773
589 774
589 779
589 780
589 782
589 793
589 1775
590 593
590 609
590 615
590 626
590 643
590 647
590 648
590 649
590 658
590 663
590 665
590 686
590 687
590 714
590 726
590 733
590 736
590 747
590 763
590 778
590 785
590 1223
590 1597
590 1775
590 1993
591 606
591 611
591 616
591 632
591 655
591 674
591 675
591 683
591 691
591 692
591 697
591 712
591 716
591 718
591 727
591 744
591 750
591 755
591 765
591 767
591 769
591 770
591 773
591 780
591 784
591 790
591 794
591 798
591 1001
591 1002
591 1688
592 620
592 623
592 636
592 671
592 678
592 686
592 692
592 720
592 730
592 787
592 798
592 1113
593 602
593 609
593 634
593 637
593 641
593 642
593 654
593 655
593 658
593 671
593 676
593 690
593 692
593 734
593 736
593 738
593 741
593 753
593 773
593 775
593 790
594 596
594 597
594 604
594 615
594 625
594 629
594 632
594 638
594 648
594 664
594 665
594 667
594 668
594 677
594 678
594 688
594 689
594 692
594 697
594 703
594 705
594 710
594 711
594 736
594 744
594 746
594 750
594 763
594 773
594 787
594 788
594 794
594 795
595 609
595 612
595 614
595 624
595 625
595 639
595 643
595 645
595 646
595 647
595 651
595 673
595 679
595 686
595 689
595 702
595 729
595 743
595 765
595 770
595 779
595 786
595 791
596 600
596 615
596 618
596 628
596 629
596 646
596 673
596 676
596 688
596 695
596 699
596 716
596 717
596 726
596 727
596 728
596 730
596 741
596 743
596 749
596 756
596 762
596 763
596 774
596 780
596 790
596 793
596 799
596 1168
596 1411
597 603
597 612
597 631
597 641
597 652
597 655
597 665
597 667
597 671
597 676
597 682
597 688
597 693
597 700
597 704
597 729
597 730
597 764
597 766
597 775
597 778
597 779
597 794
597 1420
598 599
598 616
598 622
598 623
598 624
598 651
598 666
598 686
598 690
598 693
598 695
598 700
598 704
598 732
598 735
598 750
598 760
598 768
598 775
598 776
598 780
598 786
598 787
598 798
599 600
599 601
599 620
599 626
599 649
599 656
599 657
599 671
599 706
599 721
599 723
599 728
599 730
599 731
599 752
599 763
599 764
599 767
599 769
599 774
599 792
599 1449
599 1471
600 602
600 607
600 629
600 663
600 668
600 678
600 682
600 683
600 684
600 696
600 697
600 699
600 709
600 711
600 726
600 727
600 744
600 761
600 767
600 782
600 792
600 794
600 1124
600 1299
601 609
601 610
601 649
601 674
601 675
601 679
601 690
601 693
601 713
601 728
601 754
601 756
601 763
601 764
601 782
602 604
602 616
602 619
602 621
602 632
602 636
602 640
602 661
602 688
602 706
602 710
602 713
602 716
602 724
602 732
602 748
602 776
602 783
602 784
602 786
602 794
602 796
603 611
603 623
603 633
603 634
603 637
603 640
603 644
603 659
603 664
603 666
603 678
603 704
603 760
603 769
603 770
603 775
603 782
603 789
603 794
603 1521
604 622
604 649
604 659
604 666
604 670
604 673
604 675
604 689
604 704
604 725
604 782
604 786
604 1052
604 1308
605 611
605 618
605 626
605 641
605 654
605 661
605 684
605 722
605 755
605 769
605 774
605 777
605 781
605 784
605 795
606 608
606 616
606 624
606 629
606 633
606 645
606 652
606 654
606 655
606 662
606 681
606 682
606 686
606 692
606 700
606 705
606 706
606 715
606 717
606 725
606 733
606 735
606 739
606 740
606 752
606 757
606 762
606 771
606 774
606 783
606 786
606 1359
607 616
607 617
607 624
607 648
607 652
607 667
607 669
607 677
607 678
607 721
607 730
607 738
607 739
607 747
607 752
607 1674
608 610
608 615
608 625
608 630
608 631
608 632
608 643
608 657
608 671
608 703
608 711
608 714
608 736
608 751
608 755
608 760
608 763
608 765
608 797
608 840
608 1042
608 1167
608 1367
609 616
609 619
609 621
609 628
609 657
609 669
609 680
609 690
609 693
609 711
609 712
609 736
609 742
609 754
609 764
609 796
610 627
610 641
610 651
610 657
610 660
610 678
610 680
610 682
610 687
610 698
610 702
610 710
610 712
610 725
610 738
610 747
610 766
610 772
610 788
610 795
610 1491
611 614
611 637
611 641
611 645
611 649
611 652
611 669
611 704
611 715
611 720
611 724
611 740
611 753
611 754
611 760
611 762
611 765
611 768
611 780
611 782
611 793
611 795
611 796
611 798
611 969
612 617
612 620
612 628
612 637
612 653
612 655
612 658
612 660
612 681
612 702
612 707
612 719
612 722
612 725
612 732
612 746
612 756
612 758
612 772
612 773
612 785
612 788
612 798
612 1207
613 645
613 648
613 651
613 652
613 659
613 672
613 678
613 698
613 700
613 703
613 705
613 720
613 727
613 743
613 751
613 776
613 778
613 782
613 1243
613 1497
614 615
614 619
614 636
614 649
614 658
614 664
614 678
614 687
614 748
614 754
614 796
615 616
615 660
615 661
615 709
615 714
615 720
615 740
615 761
615 763
615 767
615 770
615 773
615 781
615 787
616 628
616 665
616 676
616 686
616 688
616 694
616 702
616 710
616 716
616 744
616 761
616 785
616 786
616 798
617 618
617 619
617 635
617 656
617 660
617 664
617 676
617 701
617 702
617 713
617 732
617 749
617 757
617 758
617 768
617 786
617 788
617 798
617 1425
618 631
618 635
618 638
618 649
618 653
618 658
618 676
618 677
618 708
618 740
618 743
618 766
618 770
618 783
618 1658
619 628
619 641
619 647
619 669
619 674
619 696
619 700
619 712
619 714
619 732
619 756
619 764
619 765
619 779
619 785
619 787
619 1489
620 623
620 625
620 626
620 655
620 656
620 671
620 687
620 691
620 703
620 704
620 708
620 712
620 713
620 716
620 721
620 728
620 732
620 743
620 752
620 764
620 767
620 772
620 787
620 792
620 1840
621 622
621 627
621 637
621 638
621 659
621 669
621 747
621 751
621 755
621 758
621 766
621 771
621 773
621 789
621 790
621 791
621 795
621 1536
621 1929
622 640
622 641
622 650
622 658
622 662
622 674
622 676
622 677
622 680
622 684
622 687
622 701
622 706
622 724
622 728
622 746
622 749
622 755
622 758
622 766
622 773
622 777
622 795
622 1114
622 1713
623 630
623 644
623 646
623 655
623 656
623 679
623 705
623 710
623 750
623 756
623 763
623 764
623 778
623 785
623 1178
624 643
624 659
624 667
624 704
624 713
624 716
624 736
624 751
624 759
624 768
624 772
624 780
624 790
624 797
624 798
624 1807
624 1875
625 634
625 661
625 664
625 667
625 673
625 680
625 704
625 716
625 735
625 742
625 760
625 874
625 1157
625 1966
626 636
626 651
626 652
626 688
626 695
626 698
626 699
626 714
626 717
626 729
626 759
626 795
627 631
627 634
627 653
627 656
627 658
627 665
627 678
627 685
627 689
627 700
627 704
627 734
627 768
627 773
627 779
627 787
627 1069
627 1392
627 1573
628 637
628 639
628 640
628 643
628 649
628 654
628 659
628 666
628 680
628 698
628 703
628 707
628 711
628 728
628 734
628 743
628 749
628 753
628 754
628 763
628 782
628 784
628 790
628 791
628 1448
628 1947
629 640
629 654
629 674
629 681
629 689
629 708
629 712
629 733
629 740
629 748
629 749
629 757
629 771
629 792
630 636
630 637
630 640
630 649
630 660
630 663
630 666
630 674
630 692
630 696
630 702
630 724
630 725
630 773
630 780
630 1748
631 634
631 657
631 664
631 702
631 706
631 720
631 729
631 751
631 752
631 759
631 774
631 782
631 784
631 799
632 633
632 634
632 643
632 654
632 655
632 667
632 670
632 672
632 683
632 684
632 689
632 715
632 727
632 730
632 733
632 737
632 741
632 742
632 749
632 752
632 758
632 769
632 782
632 783
632 1145
632 1233
633 638
633 655
633 679
633 681
633 683
633 692
633 747
633 751
633 754
633 771
633 775
633 781
633 796
633 898
633 1929
634 637
634 648
634 649
634 655
634 674
634 679
634 684
634 688
634 689
634 702
634 707
634 708
634 734
634 753
634 1292
634 1623
635 643
635 656
635 658
635 662
635 681
635 707
635 709
635 711
635 714
635 721
635 737
635 740
635 790
635 1392
636 644
636 650
636 664
636 680
636 687
636 697
636 719
636 723
636 725
636 738
636 755
636 760
636 767
636 783
636 1070
637 654
637 656
637 662
637 681
637 697
637 698
637 701
637 727
637 740
637 745
637 746
637 750
637 756
637 1574
638 652
638 655
638 668
638 688
638 697
638 701
638 710
638 729
638 745
638 788
638 1604
639 650
639 669
639 691
639 731
639 735
639 740
639 741
639 742
639 754
639 767
639 768
639 1727
640 645
640 659
640 664
640 682
640 685
640 689
640 704
640 712
640 721
640 731
640 776
640 781
640 786
640 789
640 793
641 645
641 647
641 673
641 674
641 681
641 690
641 697
641 699
641 700
641 717
641 733
641 745
641 754
641 767
641 790
641 791
641 863
642 655
642 672
642 686
642 695
642 708
642 729
642 747
642 764
642 765
642 771
642 774
642 792
643 644
643 651
643 653
643 655
643 657
643 664
643 681
643 691
643 722
643 733
643 748
643 786
643 847
644 655
644 666
644 669
644 675
644 688
644 691
644 693
644 717
644 728
644 733
644 734
644 751
644 768
644 906
644 1901
645 651
645 659
645 670
645 673
645 676
645 677
645 696
645 702
645 708
645 759
645 764
645 783
645 789
645 942
645 1086
646 661
646 662
646 668
646 670
646 672
646 680
646 683
646 684
646 694
646 698
646 727
646 730
646 732
646 734
646 737
646 755
646 761
646 762
646 781
646 782
646 787
646 1599
647 664
647 665
647 681
647 689
647 702
647 703
647 705
647 707
647 709
647 734
647 741
647 751
647 764
647 766
647 783
647 792
647 796
647 1549
648 659
648 671
648 674
648 687
648 688
648 692
648 697
648 704
648 707
648 715
648 731
648 734
648 763
648 766
648 773
648 786
649 650
649 679
649 683
649 688
649 698
649 702
649 704
649 709
649 711
649 739
649 743
649 747
649 755
649 781
649 1310
649 1443
649 1483
649 1823
650 671
650 676
650 687
650 699
650 703
650 711
650 726
650 733
650 746
650 753
650 791
650 793
650 794
650 1030
651 656
651 660
651 664
651 690
651 692
651 694
651 711
651 719
651 730
651 766
651 770
651 776
651 779
651 783
651 786
651 787
651 793
651 798
651 886
651 944
652 661
652 662
652 680
652 681
652 690
652 729
652 750
652 790
653 666
653 692
653 693
653 703
653 718
653 724
653 749
653 770
653 780
653 783
653 785
653 795
654 657
654 667
654 682
654 685
654 705
654 711
654 727
654 731
654 750
654 752
654 762
654 771
654 783
654 1707
655 658
655 667
655 684
655 686
655 695
655 716
655 718
655 729
655 731
655 735
655 737
655 775
655 776
655 778
655 787
655 1770
656 660
656 664
656 689
656 708
656 715
656 717
656 727
656 731
656 747
656 756
656 769
656 780
656 781
656 787
656 794
656 797
656 1763
657 660
657 671
657 672
657 673
657 676
657 692
657 727
657 749
657 750
657 757
657 759
657 1063
657 1979
658 662
658 670
658 686
658 697
658 711
658 722
658 724
658 727
658 736
658 737
658 745
658 749
658 753
658 755
658 770
658 780
658 781
658 785
658 791
658 792
658 799
659 660
659 670
659 681
659 682
659 694
659 717
659 721
659 725
659 729
659 740
659 759
659 762
659 775
659 779
659 788
659 793
659 1252
659 1454
659 1656
660 691
660 692
660 698
660 700
660 701
660 706
660 737
660 745
660 756
660 767
660 771
660 773
660 778
660 1902
661 674
661 676
661 682
661 685
661 707
661 717
661 721
661 723
661 736
661 742
661 745
661 749
661 752
661 754
661 770
661 781
661 789
661 790
661 876
661 1205
662 678
662 683
662 686
662 709
662 710
662 720
662 730
662 745
662 749
662 760
662 764
662 772
662 776
662 778
662 794
662 795
662 1307
663 670
663 672
663 703
663 725
663 731
663 753
663 763
663 768
663 1570
664 666
664 673
664 676
664 686
664 714
664 724
664 751
664 755
664 782
665 691
665 696
665 700
665 725
665 740
665 742
665 747
665 750
665 753
665 754
665 766
666 672
666 681
666 683
666 690
666 691
666 703
666 716
666 732
666 744
666 746
666 751
666 752
666 757
666 766
666 776
666 789
666 873
666 941
666 1557
667 673
667 674
667 688
667 705
667 709
667 715
667 717
667 735
667 750
667 758
667 760
667 761
667 771
667 1593
667 1636
668 700
668 715
668 717
668 720
668 728
668 764
668 781
668 791
668 795
668 1042
668 1352
668 1567
669 672
669 673
669 675
669 676
669 682
669 698
669 727
669 745
669 746
669 747
669 752
669 756
669 766
669 849
669 899
669 909
669 1403
670 671
670 672
670 673
670 686
670 693
670 706
670 723
670 735
670 749
670 755
670 756
670 757
670 769
670 774
670 775
670 795
670 1454
670 1736
671 674
671 691
671 699
671 720
671 724
671 759
671 774
671 775
671 782
671 787
671 799
672 673
672 711
672 714
672 729
672 741
672 748
672 752
672 766
672 776
672 783
672 788
672 835
672 1052
672 1075
672 1414
672 1836
673 676
673 683
673 688
673 696
673 698
673 706
673 711
673 716
673 733
673 735
673 741
673 767
673 778
673 795
673 1461
673 1936
674 681
674 684
674 698
674 721
674 731
674 735
674 737
674 746
674 753
674 763
674 765
674 788
674 791
674 799
674 1051
674 1954
675 689
675 695
675 700
675 707
675 741
675 766
675 771
675 784
675 787
675 792
676 697
676 704
676 712
676 740
676 741
676 742
676 748
676 778
676 788
676 794
676 1051
677 688
677 697
677 711
677 712
677 726
677 728
677 733
677 736
677 787
677 796
677 1009
678 686
678 693
678 694
678 708
678 730
678 739
678 745
678 750
678 762
678 772
678 773
678 779
678 1663
678 1976
679 696
679 701
679 712
679 727
679 752
679 753
679 763
679 768
679 778
679 792
679 798
679 799
680 688
680 694
680 700
680 705
680 713
680 722
680 723
680 726
680 735
680 743
680 763
680 773
680 777
680 785
680 786
680 791
680 793
680 797
681 688
681 690
681 693
681 713
681 723
681 739
681 740
681 751
681 759
681 778
681 789
681 792
681 1307
681 1452
682 692
682 713
682 761
682 762
682 763
682 764
682 765
682 783
682 793
682 949
683 689
683 697
683 698
683 704
683 724
683 726
683 734
683 736
683 763
683 779
683 783
683 792
683 793
683 797
684 740
684 742
684 765
684 766
684 771
684 784
684 799
685 701
685 713
685 723
685 738
685 749
685 753
685 757
685 761
685 764
685 777
685 807
685 963
685 1171
686 693
686 730
686 739
686 740
686 769
686 773
686 842
687 696
687 703
687 706
687 719
687 724
687 726
687 727
687 730
687 755
687 758
687 761
687 763
687 764
687 767
687 772
687 790
687 792
688 693
688 694
688 705
688 709
688 715
688 717
688 721
688 723
688 737
688 742
688 752
688 756
688 771
688 790
688 793
688 796
688 1095
689 692
689 700
689 708
689 710
689 735
689 751
689 752
689 755
689 758
689 766
689 1888
690 691
690 695
690 696
690 702
690 704
690 708
690 710
690 715
690 764
690 781
690 789
690 792
690 799
691 701
691 703
691 732
691 734
691 738
691 757
691 758
691 764
691 771
691 779
691 797
691 981
692 700
692 702
692 709
692 721
692 727
692 758
692 767
692 785
692 792
692 799
693 715
693 721
693 726
693 751
693 794
693 1706
694 702
694 720
694 729
694 739
694 743
694 769
694 770
694 780
694 784
694 789
694 791
694 793
694 1080
695 706
695 708
695 725
695 727
695 728
695 729
695 744
695 749
695 750
695 761
695 782
695 790
695 793
695 1115
695 1843
696 699
696 706
696 712
696 714
696 719
696 733
696 739
696 751
696 752
696 764
696 771
696 788
696 798
696 1383
697 698
697 708
697 736
697 759
697 783
697 786
697 790
697 795
697 798
697 838
698 711
698 744
698 749
698 755
698 757
698 758
698 790
698 1947
699 704
699 713
699 731
699 742
699 766
699 767
699 777
699 794
699 799
699 1911
699 1988
700 704
700 717
700 719
700 731
700 733
700 745
700 756
700 769
700 770
700 779
700 790
700 797
700 942
701 708
701 728
701 746
701 749
701 752
701 757
701 761
701 764
701 777
701 786
701 788
701 789
701 794
701 796
701 798
701 1202
701 1448
701 1620
702 704
702 705
702 710
702 744
702 782
702 784
702 796
702 1418
702 1604
703 705
703 706
703 708
703 709
703 710
703 712
703 721
703 725
703 727
703 733
703 734
703 738
703 742
703 754
703 788
703 1713
703 1882
704 713
704 720
704 733
704 742
704 759
704 760
704 774
704 775
704 785
704 798
704 1123
704 1616
704 1684
705 715
705 738
705 746
705 754
705 756
705 762
705 793
705 799
705 980
706 708
706 744
706 760
706 766
706 1777
707 712
707 716
707 735
707 751
707 790
707 1271
708 711
708 713
708 738
708 743
708 753
708 757
708 764
708 788
708 790
709 711
709 723
709 731
709 758
709 759
709 761
709 762
709 791
709 799
709 883
709 998
709 1808
710 739
710 742
710 750
710 764
710 773
710 786
710 799
710 1615
711 730
711 735
711 739
711 744
711 773
711 790
712 713
712 722
712 738
712 749
712 779
712 788
713 721
713 731
713 733
713 743
713 775
713 779
713 783
713 787
713 797
713 1370
714 730
714 740
714 750
714 769
714 773
714 789
714 1325
715 739
715 748
715 761
715 765
715 773
715 790
715 795
715 1040
716 728
716 731
716 735
716 745
716 746
716 780
716 799
716 1086
716 1991
717 721
717 744
717 759
717 768
717 780
717 781
717 782
717 795
717 1096
717 1272
718 723
718 734
718 736
718 759
718 771
718 773
718 780
718 791
718 792
718 796
718 966
718 1834
719 727
719 744
719 753
719 756
719 772
719 776
719 786
719 792
719 794
719 832
719 1380
720 724
720 729
720 730
720 756
720 775
720 778
720 779
720 782
720 790
720 795
720 798
721 732
721 743
721 762
721 767
721 777
721 789
721 915
722 725
722 728
722 775
722 787
722 792
722 1161
722 1940
723 740
723 745
723 755
723 757
723 768
723 784
723 794
723 796
723 798
723 1537
724 729
724 732
724 740
724 743
724 751
724 754
724 774
724 775
724 789
724 790
724 791
724 795
725 727
725 735
725 760
725 770
725 775
725 783
725 788
725 790
725 792
725 799
726 754
726 758
726 1423
726 1673
726 1693
727 742
727 743
727 744
727 747
727 751
727 753
727 755
727 756
727 765
727 771
727 776
727 781
727 792
728 734
728 737
728 741
728 744
728 748
728 749
728 752
728 767
728 770
728 782
728 794
728 999
728 1012
728 1223
728 1856
729 736
729 747
729 752
729 758
729 762
729 775
729 783
729 873
729 1729
729 1790
730 738
730 742
730 759
730 788
730 795
730 1127
731 776
732 739
732 745
732 749
732 759
732 760
732 761
732 769
732 770
732 775
732 783
732 814
732 1296
733 735
733 754
733 778
733 784
733 794
733 798
734 783
734 787
734 1178
734 1219
735 739
735 741
735 746
735 747
735 755
735 760
735 762
735 764
735 1511
735 1518
736 740
736 742
736 754
736 760
736 764
736 777
736 780
736 796
736 1434
736 1761
737 740
737 742
737 753
737 761
737 766
737 777
737 781
737 785
737 788
737 796
737 1905
737 1987
738 761
738 764
738 771
738 781
738 787
738 789
738 796
738 1535
739 748
739 749
739 752
739 754
739 761
739 764
739 770
739 774
739 775
739 799
739 1243
740 748
740 759
740 767
741 743
741 745
741 749
741 763
741 776
741 785
742 745
742 755
742 766
742 779
742 784
742 793
742 797
742 1737
743 759
743 761
743 762
743 764
743 765
743 768
743 769
743 780
743 782
743 792
743 1991
744 750
744 755
744 757
744 759
744 763
744 782
744 789
744 790
744 791
745 751
745 791
745 797
746 749
746 759
746 768
746 777
746 780
747 749
747 769
747 781
747 797
747 1184
748 784
748 790
748 792
748 1042
748 1849
749 782
749 791
749 795
749 1586
750 767
750 771
750 776
750 778
750 780
750 784
750 788
750 790
750 1113
750 1257
750 1334
751 758
751 761
751 781
751 1045
752 756
752 766
752 773
752 778
752 785
752 786
752 798
752 1136
752 1644
752 1861
753 765
753 766
753 769
753 782
753 1840
754 777
754 778
754 783
754 796
755 763
755 765
755 787
755 789
755 790
755 799
755 1262
756 766
756 1573
757 759
757 763
757 776
757 788
757 789
757 791
757 792
757 1340
758 762
758 773
758 775
758 784
758 786
758 796
758 1810
759 768
759 777
759 787
760 782
760 785
760 787
760 1004
760 1612
761 762
761 772
761 775
761 1803
761 1913
762 772
762 791
762 1749
763 768
763 773
763 775
763 778
763 786
763 796
763 798
763 874
763 1228
763 1895
764 780
764 790
764 793
764 1305
764 1441
765 792
765 1080
766 772
766 775
766 794
766 1936
767 777
767 793
767 1120
767 1164
767 1990
768 780
768 783
768 784
768 787
768 789
768 797
768 934
769 784
769 786
770 786
771 788
771 794
771 798
771 799
772 783
772 792
772 797
772 1378
772 1935
773 1321
773 1917
774 783
774 790
774 798
774 1285
774 1483
775 776
775 780
775 991
776 782
776 799
777 824
777 970
777 1757
778 783
778 785
778 798
778 1132
779 781
779 793
779 794
779 1684
779 1695
780 781
780 782
780 785
780 798
781 785
781 786
781 792
781 798
781 1538
781 1696
782 798
783 784
783 787
784 786
784 795
784 796
784 799
785 796
786 794
786 798
786 1567
786 1787
787 1751
788 789
788 1356
788 1990
791 793
791 797
792 1696
793 1153
795 1027
798 828
799 1156
800 811
800 830
800 836
800 837
800 848
800 868
800 874
800 894
800 895
800 901
800 913
800 922
800 949
800 958
800 968
800 979
800 987
800 1027
800 1034
800 1038
800 1059
800 1066
800 1067
800 1073
800 1091
800 1113
800 1114
800 1115
800 1118
800 1131
800 1133
800 1137
800 1144
800 1166
800 1172
800 1174
800 1175
800 1182
800 1191
800 1193
801 807
801 813
801 816
801 828
801 844
801 848
801 855
801 876
801 878
801 884
801 895
801 899
801 902
801 915
801 918
801 930
801 937
801 968
801 970
801 990
801 1030
801 1061
801 1066
801 1070
801 1071
801 1088
801 1100
801 1125
801 1130
801 1150
801 1154
801 1170
801 1176
801 1317
802 805
802 815
802 818
802 824
802 835
802 842
802 849
802 853
802 854
802 871
802 880
802 905
802 907
802 911
802 914
802 949
802 950
802 1020
802 1026
802 1028
802 1045
802 1057
802 1062
802 1081
802 1082
802 1087
802 1090
802 1103
802 1109
802 1120
802 1124
802 1128
802 1148
802 1165
802 1169
802 1171
802 1173
802 1180
802 1184
802 1198
803 807
803 813
803 817
803 828
803 829
803 833
803 841
803 861
803 865
803 866
803 870
803 879
803 897
803 920
803 937
803 957
803 959
803 962
803 964
803 984
803 985
803 987
803 1004
803 1017
803 1030
803 1052
803 1056
803 1072
803 1086
803 1096
803 1113
803 1119
803 1125
803 1130
803 1131
803 1147
803 1155
803 1160
803 1165
803 1181
803 1865
804 811
804 826
804 845
804 846
804 857
804 867
804 868
804 869
804 883
804 888
804 920
804 929
804 942
804 964
804 966
804 971
804 974
804 984
804 992
804 996
804 1003
804 1009
804 1018
804 1046
804 1053
804 1123
804 1124
804 1127
804 1131
804 1135
804 1160
804 1162
804 1170
804 1173
804 1189
804 1196
804 1605
805 807
805 818
805 820
805 840
805 843
805 854
805 855
805 871
805 879
805 882
805 883
805 889
805 902
805 918
805 925
805 938
805 940
805 949
805 950
805 961
805 973
805 981
805 1009
805 1036
805 1043
805 1044
805 1051
805 1053
805 1078
805 1090
805 1123
805 1128
805 1137
805 1139
805 1141
805 1152
805 1154
805 1155
805 1161
805 1182
805 1195
805 1196
805 1396
806 848
806 858
806 878
806 887
806 889
806 908
806 912
806 926
806 932
806 944
806 946
806 955
806 957
806 986
806 993
806 1006
806 1008
806 1010
806 1011
806 1018
806 1024
806 1031
806 1040
806 1041
806 1048
806 1049
806 1050
806 1053
806 1071
806 1079
806 1108
806 1128
806 1130
806 1144
806 1158
806 1159
806 1165
806 1182
806 1437
807 808
807 815
807 826
807 827
807 828
807 829
807 852
807 857
807 859
807 871
807 877
807 885
807 887
807 893
807 903
807 905
807 911
807 919
807 920
807 934
807 935
807 947
807 962
807 982
807 983
807 989
807 1000
807 1011
807 1015
807 1020
807 1022
807 1026
807 1044
807 1048
807 1051
807 1073
807 1075
807 1086
807 1092
807 1111
807 1114
807 1122
807 1131
807 1140
807 1154
807 1161
807 1164
807 1187
807 1191
807 1194
807 1197
807 1421
807 1565
808 811
808 814
808 861
808 909
808 915
808 922
808 944
808 947
808 955
808 957
808 969
808 972
808 977
808 985
808 1006
808 1021
808 1026
808 1029
808 1032
808 1046
808 1047
808 1055
808 1058
808 1096
808 1108
808 1122
808 1124
808 1126
808 1131
808 1138
808 1141
808 1163
808 1171
808 1179
808 1930
809 815
809 848
809 849
809 852
809 854
809 867
809 869
809 887
809 900
809 903
809 931
809 938
809 942
809 971
809 1009
809 1011
809 1030
809 1039
809 1047
809 1051
809 1079
809 1111
809 1122
809 1125
809 1128
809 1130
809 1132
809 1142
809 1175
809 1176
809 1188
809 1194
809 1229
810 812
810 820
810 832
810 837
810 840
810 844
810 845
810 848
810 854
810 865
810 880
810 888
810 898
810 901
810 902
810 903
810 923
810 927
810 932
810 952
810 955
810 978
810 992
810 1020
810 1026
810 1037
810 1064
810 1068
810 1071
810 1079
810 1087
810 1107
810 1118
810 1130
810 1132
810 1133
810 1138
810 1142
810 1160
810 1167
810 1189
810 1197
810 1199
810 1690
811 812
811 818
811 825
811 831
811 843
811 859
811 877
811 884
811 900
811 939
811 948
811 954
811 958
811 959
811 967
811 981
811 1003
811 1004
811 1006
811 1009
811 1040
811 1046
811 1048
811 1050
811 1053
811 1054
811 1060
811 1061
811 1064
811 1067
811 1075
811 1083
811 1105
811 1108
811 1117
811 1119
811 1123
811 1147
811 1149
811 1155
811 1163
811 1173
811 1188
811 1197
812 819
812 831
812 834
812 838
812 843
812 855
812 860
812 873
812 889
812 916
812 920
812 929
812 935
812 939
812 941
812 942
812 951
812 955
812 982
812 993
812 1009
812 1025
812 1029
812 1038
812 1057
812 1059
812 1064
812 1096
812 1097
812 1101
812 1109
812 1116
812 1119
812 1120
812 1121
812 1131
812 1149
812 1157
812 1304
813 824
813 830
813 837
813 861
813 864
813 868
813 869
813 885
813 887
813 893
813 931
813 932
813 937
813 950
813 955
813 960
813 965
813 967
813 975
813 982
813 1017
813 1070
813 1089
813 1117
813 1119
813 1130
813 1158
813 1170
813 1173
813 1179
814 829
814 833
814 843
814 852
814 854
814 880
814 898
814 917
814 931
814 937
814 962
814 966
814 976
814 983
814 984
814 988
814 993
814 995
814 996
814 1001
814 1010
814 1012
814 1013
814 1018
814 1021
814 1022
814 1025
814 1040
814 1048
814 1051
814 1062
814 1099
814 1115
814 1116
814 1121
814 1127
814 1132
814 1139
814 1140
814 1142
814 1145
814 1149
814 1153
814 1185
814 1186
814 1196
814 1810
815 825
815 853
815 856
815 860
815 877
815 883
815 896
815 912
815 915
815 920
815 922
815 927
815 928
815 934
815 985
815 986
815 997
815 1012
815 1021
815 1024
815 1028
815 1038
815 1041
815 1045
815 1053
815 1064
815 1087
815 1089
815 1092
815 1093
815 1104
815 1109
815 1111
815 1115
815 1138
815 1142
815 1150
815 1170
815 1173
815 1177
815 1187
815 1193
815 1468
816 857
816 863
816 877
816 892
816 916
816 927
816 931
816 938
816 939
816 941
816 953
816 954
816 987
816 999
816 1006
816 1015
816 1016
816 1025
816 1034
816 1039
816 1069
816 1073
816 1081
816 1090
816 1094
816 1106
816 1108
816 1109
816 1135
816 1136
816 1137
816 1162
817 824
817 829
817 833
817 835
817 854
817 857
817 901
817 911
817 919
817 936
817 940
817 941
817 943
817 953
817 970
817 980
817 981
817 997
817 1008
817 1024
817 1039
817 1047
817 1056
817 1066
817 1078
817 1091
817 1098
817 1101
817 1121
817 1134
817 1140
817 1149
817 1155
817 1169
817 1176
817 1182
817 1190
817 1197
817 1536
818 825
818 827
818 828
818 832
818 835
818 836
818 845
818 877
818 894
818 913
818 916
818 922
818 942
818 944
818 946
818 949
818 956
818 966
818 967
818 976
818 982
818 983
818 985
818 991
818 997
818 1042
818 1061
818 1071
818 1093
818 1096
818 1097
818 1098
818 1101
818 1105
818 1124
818 1129
818 1142
818 1143
818 1151
818 1154
818 1184
818 1198
819 821
819 822
819 840
819 845
819 852
819 861
819 883
819 890
819 914
819 929
819 930
819 952
819 956
819 964
819 986
819 993
819 1018
819 1028
819 1029
819 1035
819 1037
819 1039
819 1045
819 1063
819 1068
819 1072
819 1083
819 1088
819 1101
819 1109
819 1116
819 1119
819 1122
819 1138
819 1141
819 1144
819 1169
819 1185
819 1674
820 861
820 894
820 900
820 905
820 909
820 916
820 935
820 937
820 942
820 988
820 997
820 1002
820 1030
820 1031
820 1034
820 1047
820 1058
820 1063
820 1070
820 1086
820 1090
820 1093
820 1110
820 1123
820 1129
820 1136
820 1140
820 1160
820 1164
820 1178
820 1192
820 1195
821 831
821 838
821 858
821 865
821 866
821 869
821 888
821 905
821 922
821 925
821 946
821 951
821 959
821 980
821 988
821 989
821 992
821 1006
821 1008
821 1031
821 1037
821 1062
821 1099
821 1104
821 1107
821 1112
821 1119
821 1140
821 1143
821 1145
821 1147
821 1156
821 1158
821 1159
821 1164
821 1174
821 1177
821 1187
821 1189
821 1192
821 1196
821 1198
821 1378
821 1400
821 1922
822 829
822 835
822 846
822 847
822 856
822 860
822 868
822 877
822 889
822 891
822 892
822 907
822 919
822 920
822 922
822 924
822 929
822 933
822 946
822 950
822 951
822 960
822 961
822 967
822 970
822 974
822 979
822 989
822 995
822 997
822 998
822 1016
822 1024
822 1025
822 1027
822 1043
822 1050
822 1053
822 1056
822 1069
822 1074
822 1077
822 1112
822 1118
822 1127
822 1148
822 1166
822 1168
822 1188
823 829
823 833
823 835
823 838
823 842
823 849
823 872
823 886
823 888
823 908
823 927
823 941
823 944
823 946
823 954
823 968
823 977
823 984
823 998
823 1001
823 1007
823 1012
823 1016
823 1022
823 1026
823 1030
823 1032
823 1056
823 1067
823 1081
823 1084
823 1096
823 1119
823 1129
823 1130
823 1144
823 1147
823 1166
823 1174
823 1183
823 1190
823 1197
824 827
824 839
824 856
824 865
824 870
824 894
824 899
824 901
824 903
824 939
824 949
824 954
824 959
824 967
824 996
824 1001
824 1010
824 1016
824 1039
824 1042
824 1058
824 1061
824 1068
824 1128
824 1141
824 1152
824 1165
824 1175
825 836
825 844
825 855
825 861
825 881
825 883
825 885
825 915
825 920
825 929
825 930
825 958
825 964
825 973
825 975
825 978
825 985
825 987
825 989
825 993
825 998
825 1017
825 1034
825 1047
825 1057
825 1063
825 1073
825 1087
825 1129
825 1131
825 1149
825 1150
825 1151
825 1160
825 1168
825 1176
825 1179
825 1191
825 1197
825 1855
826 829
826 839
826 842
826 851
826 869
826 887
826 897
826 931
826 932
826 938
826 951
826 969
826 989
826 1001
826 1002
826 1003
826 1011
826 1031
826 1039
826 1051
826 1068
826 1076
826 1078
826 1081
826 1091
826 1104
826 1118
826 1133
826 1134
826 1140
826 1150
826 1154
826 1178
826 1192
826 1198
827 839
827 842
827 845
827 853
827 861
827 866
827 870
827 891
827 894
827 905
827 907
827 909
827 924
827 956
827 962
827 973
827 990
827 994
827 1017
827 1018
827 1022
827 1023
827 1024
827 1029
827 1033
827 1042
827 1051
827 1053
827 1076
827 1096
827 1099
827 1100
827 1105
827 1119
827 1120
827 1121
827 1122
827 1124
827 1145
827 1157
827 1165
827 1183
827 1189
827 1192
827 1813
827 1860
828 833
828 842
828 843
828 844
828 847
828 849
828 860
828 866
828 871
828 873
828 876
828 878
828 887
828 898
828 921
828 960
828 988
828 996
828 1004
828 1005
828 1007
828 1008
828 1010
828 1020
828 1024
828 1030
828 1036
828 1045
828 1079
828 1080
828 1099
828 1139
828 1151
828 1156
828 1160
828 1163
828 1165
828 1171
828 1172
828 1179
828 1182
828 1184
828 1187
828 1191
828 1193
828 1277
828 1360
828 1900
829 830
829 832
829 833
829 847
829 851
829 876
829 880
829 897
829 923
829 930
829 944
829 951
829 960
829 967
829 970
829 974
829 978
829 982
829 1014
829 1016
829 1028
829 1037
829 1049
829 1053
829 1062
829 1065
829 1068
829 1076
829 1078
829 1079
829 1083
829 1084
829 1105
829 1123
829 1138
829 1142
829 1154
829 1157
829 1160
829 1180
829 1181
829 1187
829 1642
829 1715
829 1763
830 832
830 838
830 847
830 849
830 867
830 872
830 873
830 877
830 879
830 884
830 895
830 898
830 902
830 905
830 908
830 916
830 919
830 920
830 924
830 940
830 943
830 960
830 967
830 968
830 970
830 998
830 1000
830 1021
830 1023
830 1026
830 1029
830 1053
830 1077
830 1078
830 1079
830 1081
830 1100
830 1109
830 1111
830 1119
830 1137
830 1138
830 1164
830 1176
830 1179
830 1187
831 832
831 853
831 861
831 873
831 951
831 962
831 963
831 966
831 972
831 980
831 982
831 988
831 1001
831 1003
831 1023
831 1062
831 1075
831 1100
831 1112
831 1147
831 1150
831 1159
831 1161
831 1167
831 1168
831 1180
831 1186
831 1191
831 1198
832 835
832 839
832 846
832 850
832 851
832 860
832 866
832 871
832 886
832 905
832 908
832 917
832 924
832 933
832 962
832 966
832 968
832 971
832 975
832 987
832 994
832 1003
832 1006
832 1009
832 1010
832 1017
832 1020
832 1039
832 1055
832 1065
832 1067
832 1093
832 1097
832 1099
832 1106
832 1112
832 1113
832 1136
832 1139
832 1148
832 1152
832 1160
832 1176
832 1183
833 835
833 836
833 843
833 894
833 913
833 958
833 959
833 977
833 986
833 1008
833 1017
833 1020
833 1025
833 1033
833 1048
833 1084
833 1112
833 1148
833 1149
833 1150
833 1152
833 1173
833 1186
833 1189
833 1191
833 1194
834 837
834 855
834 899
834 901
834 911
834 922
834 939
834 951
834 971
834 974
834 995
834 996
834 999
834 1006
834 1022
834 1033
834 1046
834 1048
834 1078
834 1089
834 1091
834 1095
834 1096
834 1102
834 1119
834 1133
834 1139
834 1150
834 1154
834 1156
834 1157
834 1162
834 1175
834 1180
835 840
835 842
835 846
835 848
835 851
835 857
835 864
835 880
835 893
835 905
835 911
835 912
835 942
835 943
835 944
835 981
835 982
835 989
835 1005
835 1008
835 1014
835 1015
835 1022
835 1048
835 1052
835 1083
835 1102
835 1113
835 1115
835 1117
835 1127
835 1133
835 1160
835 1162
835 1163
835 1171
835 1176
835 1177
835 1184
835 1191
835 1192
835 1196
835 1759
836 838
836 848
836 855
836 856
836 859
836 863
836 865
836 895
836 898
836 902
836 910
836 914
836 917
836 922
836 929
836 949
836 954
836 967
836 982
836 983
836 985
836 986
836 988
836 991
836 992
836 994
836 1032
836 1051
836 1053
836 1066
836 1071
836 1084
836 1095
836 1097
836 1099
836 1105
836 1106
836 1108
836 1109
836 1119
836 1133
836 1139
836 1144
836 1154
836 1155
836 1160
836 1165
836 1166
836 1169
836 1174
836 1177
836 1229
837 841
837 843
837 886
837 902
837 909
837 912
837 926
837 948
837 981
837 1000
837 1001
837 1047
837 1049
837 1050
837 1053
837 1055
837 1081
837 1090
837 1112
837 1122
837 1124
837 1151
837 1172
837 1175
837 1178
837 1180
837 1189
837 1192
837 1199
838 857
838 862
838 863
838 866
838 870
838 888
838 911
838 912
838 915
838 922
838 935
838 969
838 988
838 993
838 1007
838 1009
838 1025
838 1028
838 1035
838 1065
838 1073
838 1074
838 1087
838 1092
838 1103
838 1116
838 1145
839 845
839 847
839 863
839 864
839 867
839 869
839 878
839 886
839 920
839 928
839 930
839 943
839 947
839 949
839 958
839 975
839 1010
839 1016
839 1030
839 1035
839 1041
839 1048
839 1059
839 1077
839 1078
839 1099
839 1102
839 1103
839 1112
839 1113
839 1116
839 1122
839 1125
839 1134
839 1138
839 1168
839 1181
839 1182
839 1196
839 1198
839 1502
839 1647
839 1893
840 860
840 878
840 890
840 904
840 909
840 914
840 919
840 920
840 934
840 937
840 949
840 952
840 957
840 958
840 970
840 973
840 977
840 1011
840 1013
840 1023
840 1036
840 1063
840 1112
840 1115
840 1127
840 1139
840 1147
840 1148
840 1151
840 1166
840 1176
840 1180
840 1199
841 842
841 863
841 896
841 898
841 904
841 911
841 917
841 927
841 929
841 933
841 953
841 962
841 971
841 1019
841 1032
841 1053
841 1055
841 1066
841 1067
841 1070
841 1072
841 1087
841 1092
841 1104
841 1105
841 1112
841 1129
841 1133
841 1140
841 1145
841 1156
841 1166
841 1172
841 1174
841 1179
841 1180
841 1185
841 1803
842 843
842 851
842 853
842 857
842 858
842 866
842 874
842 892
842 895
842 911
842 916
842 918
842 925
842 929
842 931
842 938
842 946
842 948
842 953
842 961
842 965
842 967
842 970
842 985
842 987
842 1013
842 1054
842 1061
842 1062
842 1067
842 1087
842 1108
842 1116
842 1141
842 1145
842 1149
842 1178
842 1181
842 1182
842 1196
842 1197
842 1548
842 1579
842 1838
843 850
843 853
843 863
843 873
843 895
843 935
843 950
843 965
843 972
843 987
843 1018
843 1024
843 1030
843 1035
843 1041
843 1043
843 1045
843 1048
843 1056
843 1065
843 1069
843 1082
843 1100
843 1108
843 1129
843 1133
843 1142
843 1167
843 1177
843 1195
843 1330
844 849
844 851
844 862
844 864
844 870
844 872
844 875
844 877
844 887
844 893
844 901
844 912
844 916
844 922
844 938
844 943
844 954
844 971
844 974
844 976
844 977
844 979
844 992
844 1003
844 1005
844 1010
844 1022
844 1029
844 1032
844 1036
844 1067
844 1072
844 1079
844 1083
844 1099
844 1113
844 1118
844 1120
844 1134
844 1143
844 1152
844 1153
844 1154
844 1175
844 1183
845 847
845 851
845 854
845 863
845 870
845 875
845 876
845 901
845 909
845 928
845 930
845 937
845 939
845 942
845 948
845 964
845 988
845 1002
845 1003
845 1009
845 1013
845 1021
845 1036
845 1052
845 1076
845 1084
845 1094
845 1115
845 1123
845 1149
845 1155
845 1169
845 1188
845 1192
845 1196
845 1536
846 899
846 901
846 905
846 909
846 911
846 960
846 963
846 968
846 986
846 990
846 995
846 1000
846 1025
846 1034
846 1054
846 1056
846 1057
846 1058
846 1061
846 1080
846 1083
846 1098
846 1115
846 1119
846 1146
846 1155
846 1162
846 1381
847 848
847 855
847 857
847 875
847 886
847 895
847 918
847 927
847 937
847 940
847 941
847 947
847 949
847 951
847 961
847 967
847 995
847 1004
847 1009
847 1021
847 1024
847 1058
847 1065
847 1066
847 1071
847 1079
847 1089
847 1110
847 1121
847 1122
847 1123
847 1140
847 1142
847 1145
847 1152
847 1159
847 1166
847 1177
847 1178
847 1182
847 1192
847 1199
847 1254
847 1911
848 852
848 853
848 855
848 869
848 874
848 875
848 897
848 914
848 917
848 930
848 932
848 947
848 966
848 976
848 989
848 1002
848 1003
848 1015
848 1028
848 1048
848 1051
848 1067
848 1084
848 1103
848 1104
848 1105
848 1109
848 1116
848 1121
848 1130
848 1131
848 1135
848 1154
848 1156
848 1172
848 1182
848 1392
849 851
849 855
849 861
849 862
849 875
849 897
849 901
849 929
849 933
849 1008
849 1032
849 1046
849 1057
849 1082
849 1083
849 1096
849 1098
849 1100
849 1109
849 1110
849 1111
849 1117
849 1122
849 1127
849 1130
849 1132
849 1134
849 1153
849 1160
849 1168
849 1172
849 1173
849 1183
850 866
850 873
850 874
850 885
850 886
850 887
850 921
850 948
850 976
850 1003
850 1005
850 1008
850 1016
850 1039
850 1043
850 1057
850 1065
850 1087
850 1108
850 1111
850 1116
850 1123
850 1126
850 1129
850 1143
850 1147
850 1150
850 1159
850 1179
850 1297
851 857
851 869
851 892
851 914
851 917
851 919
851 932
851 940
851 948
851 959
851 971
851 973
851 1000
851 1010
851 1011
851 1034
851 1044
851 1050
851 1056
851 1060
851 1071
851 1073
851 1084
851 1098
851 1100
851 1102
851 1134
851 1141
851 1147
851 1164
851 1166
851 1174
852 862
852 874
852 879
852 892
852 904
852 908
852 914
852 918
852 919
852 924
852 940
852 945
852 954
852 958
852 976
852 994
852 995
852 1001
852 1033
852 1038
852 1055
852 1068
852 1077
852 1089
852 1090
852 1104
852 1125
852 1131
852 1138
852 1156
852 1165
852 1167
852 1185
853 859
853 862
853 868
853 877
853 885
853 895
853 913
853 930
853 935
853 936
853 957
853 958
853 974
853 978
853 1003
853 1018
853 1024
853 1031
853 1037
853 1058
853 1069
853 1075
853 1077
853 1084
853 1087
853 1090
853 1095
853 1112
853 1136
853 1164
853 1183
853 1560
853 1698
854 876
854 920
854 931
854 933
854 940
854 944
854 954
854 961
854 984
854 985
854 993
854 995
854 1052
854 1065
854 1075
854 1084
854 1088
854 1096
854 1102
854 1105
854 1106
854 1129
854 1132
854 1154
854 1155
854 1157
854 1160
854 1163
854 1181
855 879
855 880
855 895
855 898
855 900
855 933
855 935
855 936
855 937
855 948
855 952
855 969
855 973
855 980
855 993
855 1002
855 1006
855 1009
855 1012
855 1017
855 1027
855 1034
855 1038
855 1055
855 1058
855 1066
855 1072
855 1080
855 1092
855 1097
855 1123
855 1124
855 1126
855 1157
855 1180
855 1182
855 1190
855 1191
855 1199
855 1355
855 1958
856 873
856 892
856 913
856 919
856 922
856 937
856 941
856 942
856 959
856 962
856 988
856 990
856 992
856 993
856 996
856 1009
856 1012
856 1033
856 1044
856 1060
856 1070
856 1075
856 1079
856 1111
856 1121
856 1127
856 1136
856 1146
856 1178
856 1181
856 1182
856 1196
856 1199
857 866
857 879
857 923
857 941
857 942
857 947
857 955
857 956
857 974
857 976
857 990
857 994
857 999
857 1009
857 1015
857 1022
857 1043
857 1059
857 1065
857 1068
857 1087
857 1103
857 1104
857 1108
857 1109
857 1113
857 1114
857 1165
857 1168
857 1172
857 1258
857 1974
858 861
858 868
858 882
858 901
858 904
858 925
858 932
858 933
858 934
858 940
858 955
858 956
858 961
858 965
858 976
858 978
858 979
858 988
858 999
858 1017
858 1023
858 1067
858 1081
858 1097
858 1117
858 1119
858 1121
858 1122
858 1125
858 1131
858 1132
858 1138
858 1143
858 1144
858 1149
858 1160
858 1179
858 1180
858 1187
858 1196
858 1197
859 863
859 872
859 878
859 881
859 884
859 887
859 889
859 890
859 896
859 901
859 915
859 931
859 932
859 938
859 955
859 960
859 965
859 986
859 992
859 1000
859 1004
859 1007
859 1011
859 1014
859 1029
859 1033
859 1046
859 1054
859 1081
859 1097
859 1100
859 1104
859 1110
859 1114
859 1132
859 1134
859 1142
859 1148
859 1154
859 1169
859 1179
859 1579
859 1986
860 862
860 867
860 872
860 874
860 887
860 891
860 914
860 937
860 940
860 941
860 964
860 978
860 982
860 990
860 1000
860 1014
860 1031
860 1037
860 1039
860 1041
860 1044
860 1049
860 1056
860 1059
860 1061
860 1068
860 1070
860 1096
860 1123
860 1124
860 1129
860 1132
860 1149
860 1150
860 1158
860 1172
860 1183
860 1189
860 1193
861 874
861 879
861 918
861 953
861 959
861 976
861 979
861 983
861 985
861 993
861 1018
861 1037
861 1039
861 1054
861 1066
861 1078
861 1095
861 1107
861 1115
861 1150
861 1162
861 1173
861 1176
861 1188
862 867
862 878
862 894
862 918
862 931
862 934
862 937
862 951
862 961
862 988
862 1002
862 1036
862 1038
862 1040
862 1064
862 1065
862 1073
862 1076
862 1128
862 1130
862 1148
862 1163
862 1165
862 1167
862 1191
862 1195
862 1197
863 869
863 870
863 898
863 907
863 920
863 946
863 968
863 973
863 1012
863 1019
863 1056
863 1070
863 1072
863 1078
863 1083
863 1099
863 1121
863 1123
863 1142
863 1165
863 1170
863 1190
863 1287
864 867
864 873
864 889
864 895
864 898
864 935
864 939
864 945
864 948
864 951
864 955
864 960
864 971
864 995
864 1002
864 1008
864 1010
864 1019
864 1026
864 1027
864 1045
864 1047
864 1054
864 1063
864 1064
864 1070
864 1075
864 1076
864 1078
864 1112
864 1115
864 1118
864 1121
864 1126
864 1131
864 1152
864 1158
864 1163
864 1170
864 1173
864 1174
864 1177
864 1178
864 1191
864 1197
864 1429
865 888
865 890
865 903
865 914
865 915
865 925
865 931
865 944
865 957
865 960
865 966
865 969
865 970
865 974
865 976
865 984
865 994
865 1003
865 1006
865 1007
865 1047
865 1050
865 1052
865 1058
865 1062
865 1064
865 1072
865 1073
865 1081
865 1097
865 1099
865 1110
865 1116
865 1119
865 1120
865 1126
865 1127
865 1128
865 1136
865 1140
865 1164
865 1176
865 1177
865 1184
865 1188
865 1193
866 886
866 893
866 896
866 898
866 902
866 904
866 944
866 950
866 956
866 974
866 976
866 979
866 999
866 1005
866 1045
866 1047
866 1057
866 1065
866 1074
866 1077
866 1086
866 1091
866 1127
866 1139
866 1142
866 1143
866 1144
866 1146
866 1157
866 1167
866 1175
866 1189
866 1195
866 1198
866 1707
867 881
867 892
867 910
867 918
867 928
867 933
867 937
867 954
867 963
867 967
867 992
867 1002
867 1003
867 1007
867 1008
867 1009
867 1024
867 1047
867 1054
867 1065
867 1069
867 1083
867 1098
867 1103
867 1126
867 1131
867 1133
867 1142
867 1147
867 1160
867 1167
867 1170
867 1177
867 1183
867 1186
867 1187
867 1194
868 874
868 903
868 909
868 918
868 928
868 931
868 939
868 943
868 967
868 977
868 987
868 998
868 1006
868 1012
868 1013
868 1041
868 1045
868 1060
868 1064
868 1082
868 1085
868 1109
868 1136
868 1140
868 1145
868 1148
868 1156
868 1162
868 1164
868 1175
868 1177
868 1182
868 1187
868 1198
868 1438
868 1610
868 1741
869 872
869 874
869 877
869 884
869 890
869 898
869 942
869 956
869 965
869 979
869 981
869 982
869 986
869 1016
869 1023
869 1025
869 1054
869 1059
869 1064
869 1066
869 1076
869 1084
869 1118
869 1124
869 1130
869 1147
869 1152
869 1155
869 1168
869 1715
870 910
870 931
870 934
870 956
870 967
870 969
870 971
870 977
870 1021
870 1023
870 1035
870 1057
870 1085
870 1086
870 1137
870 1138
870 1141
870 1150
870 1153
870 1171
870 1175
870 1188
870 1190
870 1194
871 888
871 909
871 935
871 941
871 942
871 948
871 950
871 963
871 978
871 994
871 1003
871 1011
871 1015
871 1017
871 1020
871 1029
871 1031
871 1057
871 1089
871 1098
871 1100
871 1101
871 1111
871 1126
871 1138
871 1143
871 1148
871 1186
871 1187
871 1189
871 1259
871 1320
871 1838
872 877
872 882
872 912
872 919
872 922
872 927
872 935
872 945
872 956
872 957
872 963
872 964
872 983
872 1001
872 1013
872 1022
872 1057
872 1078
872 1099
872 1101
872 1118
872 1119
872 1130
872 1138
872 1142
872 1172
872 1177
872 1179
872 1188
872 1194
872 1196
873 880
873 882
873 900
873 901
873 914
873 932
873 945
873 948
873 953
873 968
873 971
873 989
873 1018
873 1023
873 1026
873 1089
873 1094
873 1107
873 1114
873 1117
873 1134
873 1138
873 1145
873 1150
873 1164
873 1165
873 1171
873 1181
873 1196
874 878
874 879
874 903
874 908
874 925
874 931
874 933
874 936
874 989
874 997
874 1004
874 1050
874 1052
874 1056
874 1087
874 1117
874 1125
874 1138
874 1151
874 1154
874 1156
874 1177
874 1179
874 1182
874 1184
874 1187
875 890
875 921
875 970
875 994
875 1000
875 1003
875 1014
875 1018
875 1027
875 1028
875 1040
875 1043
875 1044
875 1048
875 1055
875 1058
875 1062
875 1081
875 1085
875 1098
875 1118
875 1141
875 1149
875 1150
875 1154
875 1173
875 1191
875 1631
876 897
876 904
876 924
876 927
876 935
876 940
876 961
876 962
876 968
876 976
876 981
876 984
876 996
876 1000
876 1035
876 1046
876 1054
876 1055
876 1067
876 1071
876 1077
876 1084
876 1086
876 1091
876 1096
876 1133
876 1140
876 1156
876 1172
876 1173
876 1189
876 1529
877 884
877 894
877 898
877 899
877 903
877 920
877 925
877 931
877 945
877 965
877 969
877 977
877 993
877 1008
877 1029
877 1045
877 1082
877 1089
877 1093
877 1101
877 1102
877 1112
877 1130
877 1161
877 1162
877 1198
878 884
878 887
878 897
878 921
878 946
878 948
878 953
878 970
878 978
878 987
878 995
878 996
878 1002
878 1005
878 1014
878 1017
878 1019
878 1024
878 1035
878 1037
878 1047
878 1066
878 1068
878 1091
878 1102
878 1110
878 1120
878 1122
878 1126
878 1142
878 1145
878 1146
878 1159
878 1165
878 1170
878 1183
878 1188
879 898
879 904
879 913
879 915
879 916
879 919
879 931
879 933
879 946
879 948
879 949
879 950
879 961
879 962
879 963
879 993
879 1026
879 1044
879 1048
879 1075
879 1087
879 1102
879 1104
879 1132
879 1155
879 1176
879 1181
879 1187
879 1388
879 1947
880 887
880 903
880 917
880 918
880 929
880 935
880 937
880 941
880 955
880 962
880 974
880 978
880 992
880 998
880 1005
880 1015
880 1022
880 1030
880 1034
880 1040
880 1044
880 1066
880 1069
880 1075
880 1092
880 1097
880 1100
880 1120
880 1136
880 1158
880 1166
880 1181
880 1189
880 1190
881 884
881 888
881 890
881 891
881 898
881 901
881 907
881 909
881 915
881 939
881 952
881 975
881 991
881 1000
881 1014
881 1021
881 1022
881 1035
881 1036
881 1040
881 1060
881 1061
881 1071
881 1077
881 1080
881 1099
881 1126
881 1127
881 1151
881 1165
881 1184
881 1186
882 901
882 920
882 921
882 927
882 931
882 934
882 937
882 943
882 947
882 972
882 974
882 1006
882 1007
882 1008
882 1011
882 1015
882 1016
882 1031
882 1033
882 1035
882 1036
882 1037
882 1053
882 1068
882 1075
882 1080
882 1085
882 1093
882 1107
882 1137
882 1142
882 1165
882 1197
883 893
883 905
883 921
883 924
883 945
883 954
883 957
883 961
883 977
883 984
883 987
883 998
883 999
883 1013
883 1017
883 1024
883 1035
883 1046
883 1052
883 1057
883 1074
883 1080
883 1088
883 1095
883 1096
883 1108
883 1121
883 1124
883 1129
883 1144
883 1175
883 1180
883 1193
883 1722
884 889
884 915
884 935
884 952
884 963
884 964
884 969
884 982
884 987
884 991
884 992
884 1013
884 1028
884 1038
884 1044
884 1045
884 1054
884 1060
884 1075
884 1091
884 1113
884 1118
884 1122
884 1123
884 1125
884 1165
884 1184
884 1186
884 1196
884 1835
885 886
885 901
885 908
885 921
885 936
885 943
885 946
885 968
885 974
885 992
885 998
885 1006
885 1015
885 1021
885 1025
885 1032
885 1051
885 1052
885 1058
885 1063
885 1070
885 1089
885 1107
885 1109
885 1112
885 1117
885 1120
885 1130
885 1141
885 1156
885 1172
885 1174
885 1175
885 1185
886 889
886 892
886 894
886 895
886 902
886 908
886 911
886 912
886 919
886 925
886 929
886 938
886 943
886 945
886 956
886 962
886 984
886 996
886 997
886 1007
886 1012
886 1013
886 1016
886 1029
886 1030
886 1055
886 1059
886 1073
886 1125
886 1144
886 1157
886 1161
886 1168
886 1174
886 1177
886 1184
886 1467
887 893
887 911
887 912
887 915
887 925
887 935
887 942
887 947
887 950
887 962
887 968
887 971
887 984
887 988
887 990
887 991
887 1030
887 1049
887 1054
887 1062
887 1071
887 1089
887 1105
887 1115
887 1116
887 1150
887 1154
887 1170
887 1172
887 1174
887 1182
887 1199
887 1577
888 890
888 905
888 915
888 935
888 945
888 950
888 951
888 954
888 961
888 965
888 979
888 989
888 1002
888 1006
888 1010
888 1013
888 1018
888 1024
888 1031
888 1032
888 1057
888 1082
888 1094
888 1095
888 1104
888 1109
888 1116
888 1131
888 1133
888 1168
888 1176
888 1187
888 1188
889 908
889 920
889 923
889 931
889 943
889 974
889 975
889 989
889 993
889 1056
889 1059
889 1068
889 1069
889 1070
889 1078
889 1097
889 1137
889 1142
889 1145
889 1167
889 1179
889 1181
889 1182
889 1188
889 1301
890 906
890 911
890 912
890 923
890 958
890 961
890 974
890 992
890 1008
890 1059
890 1067
890 1077
890 1085
890 1102
890 1107
890 1111
890 1118
890 1125
890 1139
890 1151
890 1154
890 1156
890 1170
890 1175
890 1190
890 1578
891 897
891 899
891 900
891 912
891 935
891 939
891 949
891 961
891 963
891 972
891 974
891 986
891 990
891 996
891 1006
891 1007
891 1012
891 1043
891 1061
891 1083
891 1087
891 1095
891 1136
891 1155
891 1156
891 1168
891 1171
891 1182
891 1190
892 895
892 899
892 913
892 938
892 942
892 943
892 948
892 955
892 965
892 975
892 986
892 1006
892 1008
892 1010
892 1011
892 1023
892 1025
892 1044
892 1048
892 1064
892 1076
892 1080
892 1098
892 1101
892 1107
892 1114
892 1118
892 1129
892 1141
892 1146
892 1158
892 1162
892 1174
892 1191
893 900
893 949
893 950
893 958
893 960
893 964
893 973
893 974
893 975
893 985
893 992
893 998
893 1005
893 1065
893 1071
893 1073
893 1076
893 1082
893 1092
893 1111
893 1113
893 1125
893 1128
893 1158
893 1167
893 1185
893 1191
893 1193
893 1667
893 1977
894 898
894 911
894 926
894 932
894 968
894 972
894 983
894 991
894 1023
894 1035
894 1037
894 1038
894 1048
894 1050
894 1052
894 1056
894 1073
894 1086
894 1100
894 1110
894 1127
894 1138
894 1140
894 1148
894 1150
894 1152
894 1157
894 1668
895 898
895 912
895 916
895 917
895 923
895 926
895 943
895 947
895 955
895 959
895 989
895 1013
895 1028
895 1035
895 1049
895 1067
895 1073
895 1088
895 1125
895 1127
895 1137
895 1147
895 1162
895 1167
895 1183
895 1186
895 1486
896 906
896 909
896 915
896 916
896 920
896 935
896 954
896 956
896 957
896 958
896 967
896 970
896 971
896 999
896 1006
896 1011
896 1021
896 1047
896 1084
896 1086
896 1103
896 1152
896 1163
896 1170
896 1173
896 1198
896 1937
897 898
897 899
897 910
897 920
897 927
897 970
897 992
897 1009
897 1018
897 1021
897 1030
897 1048
897 1054
897 1070
897 1077
897 1081
897 1082
897 1097
897 1118
897 1128
897 1129
897 1131
897 1133
897 1142
897 1146
897 1157
897 1165
897 1173
897 1179
897 1189
898 906
898 909
898 911
898 912
898 923
898 929
898 933
898 934
898 937
898 942
898 945
898 981
898 982
898 987
898 989
898 991
898 997
898 1006
898 1018
898 1020
898 1027
898 1034
898 1040
898 1046
898 1048
898 1049
898 1065
898 1079
898 1094
898 1102
898 1103
898 1110
898 1114
898 1118
898 1130
898 1136
898 1145
898 1151
898 1152
898 1164
898 1165
898 1166
898 1167
898 1172
898 1190
898 1195
898 1511
899 901
899 910
899 941
899 965
899 972
899 985
899 987
899 990
899 995
899 1000
899 1004
899 1011
899 1025
899 1032
899 1037
899 1048
899 1049
899 1065
899 1071
899 1075
899 1094
899 1100
899 1113
899 1120
899 1134
899 1148
899 1149
899 1172
899 1184
900 902
900 905
900 909
900 920
900 922
900 923
900 925
900 929
900 935
900 951
900 954
900 956
900 963
900 979
900 980
900 995
900 1011
900 1014
900 1018
900 1042
900 1044
900 1049
900 1050
900 1056
900 1062
900 1068
900 1077
900 1087
900 1088
900 1097
900 1100
900 1103
900 1106
900 1120
900 1127
900 1143
900 1156
900 1166
900 1176
900 1182
900 1183
900 1188
900 1663
901 914
901 929
901 930
901 931
901 934
901 942
901 950
901 959
901 962
901 963
901 968
901 981
901 1023
901 1032
901 1034
901 1038
901 1061
901 1082
901 1094
901 1096
901 1104
901 1116
901 1121
901 1123
901 1133
901 1136
901 1139
901 1148
901 1154
901 1161
901 1169
901 1179
901 1186
902 910
902 912
902 913
902 922
902 923
902 925
902 933
902 959
902 968
902 970
902 976
902 993
902 1004
902 1017
902 1033
902 1045
902 1060
902 1077
902 1092
902 1104
902 1108
902 1114
902 1132
902 1148
902 1154
902 1157
902 1173
902 1176
903 907
903 915
903 918
903 923
903 939
903 940
903 947
903 962
903 971
903 978
903 981
903 991
903 1006
903 1015
903 1020
903 1023
903 1024
903 1030
903 1032
903 1050
903 1055
903 1072
903 1080
903 1096
903 1097
903 1102
903 1114
903 1127
903 1155
903 1161
903 1178
903 1182
903 1198
904 910
904 926
904 927
904 931
904 936
904 937
904 945
904 970
904 979
904 986
904 987
904 999
904 1017
904 1022
904 1023
904 1047
904 1051
904 1052
904 1069
904 1076
904 1088
904 1094
904 1095
904 1111
904 1133
904 1149
904 1153
904 1159
904 1183
904 1186
904 1196
904 1197
904 1733
905 912
905 924
905 934
905 973
905 974
905 981
905 997
905 1005
905 1031
905 1035
905 1036
905 1046
905 1049
905 1057
905 1061
905 1064
905 1070
905 1071
905 1085
905 1088
905 1090
905 1091
905 1092
905 1131
905 1138
905 1144
905 1151
905 1179
905 1183
905 1187
905 1191
905 1192
905 1778
906 914
906 919
906 923
906 936
906 945
906 966
906 970
906 979
906 980
906 985
906 1002
906 1009
906 1017
906 1029
906 1030
906 1037
906 1040
906 1066
906 1079
906 1080
906 1081
906 1082
906 1120
906 1143
906 1149
906 1164
906 1188
906 1199
906 1746
907 917
907 955
907 979
907 998
907 1005
907 1013
907 1028
907 1030
907 1042
907 1046
907 1058
907 1076
907 1078
907 1082
907 1090
907 1098
907 1104
907 1110
907 1111
907 1117
907 1122
907 1126
907 1133
907 1134
907 1156
907 1161
907 1165
907 1168
907 1171
907 1187
907 1190
907 1200
907 1700
908 926
908 943
908 945
908 958
908 985
908 992
908 1000
908 1015
908 1017
908 1035
908 1044
908 1045
908 1060
908 1061
908 1062
908 1063
908 1072
908 1086
908 1091
908 1102
908 1107
908 1137
908 1189
909 922
909 930
909 943
909 970
909 988
909 994
909 999
909 1015
909 1023
909 1042
909 1043
909 1066
909 1078
909 1079
909 1081
909 1091
909 1141
909 1162
909 1164
909 1182
909 1186
910 911
910 921
910 941
910 952
910 957
910 959
910 966
910 968
910 978
910 984
910 1015
910 1034
910 1073
910 1090
910 1092
910 1117
910 1118
910 1128
910 1145
910 1147
910 1163
910 1169
910 1177
910 1183
910 1187
910 1198
911 915
911 939
911 950
911 966
911 971
911 1004
911 1011
911 1015
911 1048
911 1069
911 1102
911 1132
911 1137
911 1144
911 1147
911 1163
911 1164
911 1175
911 1181
911 1185
911 1186
911 1189
911 1192
911 1193
911 1197
912 926
912 937
912 949
912 954
912 956
912 965
912 968
912 976
912 979
912 981
912 995
912 1004
912 1017
912 1025
912 1029
912 1054
912 1064
912 1071
912 1081
912 1084
912 1100
912 1116
912 1127
912 1132
912 1158
912 1171
912 1197
912 1361
913 921
913 930
913 931
913 933
913 945
913 951
913 952
913 963
913 1021
913 1022
913 1023
913 1034
913 1035
913 1038
913 1041
913 1047
913 1049
913 1065
913 1069
913 1093
913 1100
913 1111
913 1115
913 1117
913 1147
913 1159
913 1161
913 1182
913 1184
913 1189
913 1190
913 1191
913 1192
914 922
914 927
914 933
914 935
914 943
914 944
914 952
914 961
914 967
914 970
914 979
914 1009
914 1026
914 1028
914 1030
914 1031
914 1057
914 1059
914 1082
914 1093
914 1095
914 1129
914 1140
914 1154
914 1167
914 1172
914 1177
914 1179
914 1181
914 1198
914 1344
914 1569
915 916
915 924
915 927
915 932
915 933
915 937
915 943
915 962
915 976
915 979
915 995
915 1001
915 1008
915 1013
915 1031
915 1049
915 1052
915 1064
915 1067
915 1082
915 1103
915 1122
915 1127
915 1134
915 1136
915 1141
915 1143
915 1148
915 1153
915 1183
915 1193
915 1333
915 1734
916 919
916 936
916 939
916 947
916 963
916 972
916 974
916 986
916 987
916 1008
916 1019
916 1028
916 1031
916 1034
916 1051
916 1057
916 1072
916 1074
916 1079
916 1085
916 1103
916 1121
916 1156
916 1158
916 1161
916 1901
917 921
917 922
917 923
917 926
917 928
917 942
917 973
917 992
917 1024
917 1038
917 1040
917 1048
917 1055
917 1067
917 1086
917 1097
917 1102
917 1106
917 1112
917 1119
917 1148
917 1152
917 1165
917 1174
917 1177
917 1194
917 1197
917 1722
918 919
918 935
918 936
918 938
918 944
918 955
918 971
918 975
918 976
918 979
918 985
918 993
918 1004
918 1021
918 1036
918 1042
918 1047
918 1075
918 1077
918 1099
918 1100
918 1110
918 1114
918 1118
918 1126
918 1144
918 1157
918 1167
918 1168
918 1171
918 1185
918 1190
918 1192
919 925
919 982
919 990
919 999
919 1001
919 1009
919 1015
919 1025
919 1055
919 1062
919 1077
919 1082
919 1087
919 1130
919 1140
919 1169
919 1181
919 1184
919 1705
919 1799
920 927
920 929
920 936
920 949
920 952
920 960
920 964
920 967
920 971
920 972
920 973
920 1009
920 1011
920 1013
920 1020
920 1021
920 1037
920 1040
920 1051
920 1053
920 1075
920 1078
920 1103
920 1104
920 1117
920 1118
920 1130
920 1138
920 1144
920 1146
920 1161
920 1173
920 1192
920 1450
921 925
921 937
921 949
921 950
921 957
921 983
921 987
921 1004
921 1008
921 1012
921 1047
921 1053
921 1054
921 1086
921 1105
921 1111
921 1118
921 1120
921 1136
921 1142
921 1145
921 1146
921 1147
921 1154
921 1157
921 1179
921 1186
921 1189
921 1190
921 1199
921 1284
921 1882
922 931
922 945
922 947
922 955
922 970
922 974
922 979
922 981
922 1014
922 1022
922 1028
922 1029
922 1039
922 1045
922 1060
922 1063
922 1098
922 1104
922 1113
922 1148
922 1149
922 1154
922 1161
922 1172
922 1173
922 1192
922 1348
923 932
923 934
923 955
923 970
923 971
923 986
923 991
923 1008
923 1027
923 1040
923 1052
923 1100
923 1104
923 1105
923 1116
923 1119
923 1128
923 1162
923 1166
923 1168
923 1183
923 1436
923 1982
924 936
924 938
924 942
924 943
924 944
924 948
924 950
924 958
924 961
924 962
924 969
924 981
924 1005
924 1008
924 1010
924 1017
924 1023
924 1043
924 1047
924 1063
924 1068
924 1108
924 1112
924 1118
924 1130
924 1133
924 1134
924 1147
924 1154
924 1163
924 1166
924 1199
924 1737
925 929
925 944
925 955
925 1004
925 1007
925 1028
925 1038
925 1052
925 1081
925 1082
925 1083
925 1098
925 1109
925 1134
925 1137
925 1164
925 1169
925 1172
925 1186
926 932
926 933
926 936
926 960
926 967
926 970
926 974
926 979
926 982
926 985
926 990
926 999
926 1002
926 1009
926 1032
926 1039
926 1044
926 1045
926 1052
926 1078
926 1079
926 1080
926 1091
926 1094
926 1095
926 1107
926 1113
926 1116
926 1118
926 1121
926 1125
926 1128
926 1142
926 1149
926 1191
926 1192
927 965
927 970
927 990
927 1013
927 1029
927 1037
927 1043
927 1058
927 1100
927 1102
927 1105
927 1121
927 1128
927 1137
927 1138
927 1153
927 1157
927 1181
927 1182
927 1187
927 1189
928 964
928 983
928 1009
928 1017
928 1022
928 1041
928 1059
928 1061
928 1071
928 1073
928 1076
928 1078
928 1094
928 1099
928 1122
928 1140
928 1152
928 1157
928 1161
928 1165
928 1172
928 1180
928 1195
928 1199
929 958
929 975
929 981
929 988
929 1008
929 1037
929 1042
929 1050
929 1057
929 1067
929 1073
929 1089
929 1090
929 1107
929 1148
929 1162
929 1174
929 1175
929 1177
930 931
930 966
930 985
930 998
930 1007
930 1010
930 1017
930 1020
930 1041
930 1046
930 1050
930 1075
930 1077
930 1086
930 1095
930 1103
930 1107
930 1110
930 1113
930 1122
930 1136
930 1139
930 1143
930 1159
930 1160
930 1162
930 1195
930 1198
931 933
931 935
931 936
931 955
931 963
931 986
931 1037
931 1048
931 1051
931 1063
931 1064
931 1070
931 1076
931 1090
931 1098
931 1118
931 1134
931 1172
931 1178
931 1185
931 1189
931 1351
931 1430
931 1443
932 939
932 956
932 961
932 983
932 996
932 1001
932 1011
932 1014
932 1030
932 1033
932 1050
932 1058
932 1067
932 1105
932 1106
932 1114
932 1117
932 1121
932 1124
932 1130
932 1145
932 1147
932 1182
932 1197
933 940
933 951
933 952
933 964
933 980
933 984
933 993
933 1014
933 1027
933 1037
933 1048
933 1056
933 1057
933 1064
933 1070
933 1073
933 1078
933 1080
933 1093
933 1099
933 1100
933 1102
933 1103
933 1104
933 1110
933 1112
933 1114
933 1131
933 1150
933 1168
933 1170
933 1172
933 1176
933 1186
933 1192
934 937
934 993
934 998
934 1010
934 1015
934 1024
934 1028
934 1029
934 1031
934 1034
934 1053
934 1061
934 1081
934 1083
934 1096
934 1098
934 1103
934 1114
934 1117
934 1131
934 1142
934 1155
934 1156
934 1162
934 1165
934 1166
934 1180
934 1187
934 1190
934 1199
934 1393
935 936
935 937
935 939
935 944
935 949
935 960
935 974
935 983
935 985
935 998
935 1018
935 1025
935 1035
935 1041
935 1043
935 1064
935 1067
935 1080
935 1117
935 1122
935 1129
935 1154
935 1156
935 1158
935 1171
935 1320
936 937
936 939
936 952
936 954
936 955
936 964
936 986
936 998
936 1009
936 1014
936 1022
936 1023
936 1034
936 1050
936 1071
936 1080
936 1089
936 1107
936 1110
936 1119
936 1131
936 1145
936 1146
936 1159
936 1162
936 1163
936 1180
936 1182
936 1188
937 953
937 962
937 966
937 988
937 991
937 1008
937 1010
937 1011
937 1016
937 1022
937 1038
937 1046
937 1069
937 1075
937 1094
937 1110
937 1120
937 1123
937 1149
937 1168
937 1181
937 1187
937 1191
938 941
938 945
938 959
938 967
938 970
938 979
938 996
938 1014
938 1033
938 1042
938 1043
938 1050
938 1051
938 1054
938 1058
938 1062
938 1076
938 1078
938 1082
938 1087
938 1098
938 1109
938 1112
938 1145
938 1149
938 1156
938 1164
938 1166
938 1178
938 1183
938 1192
938 1197
938 1199
939 943
939 945
939 952
939 958
939 967
939 988
939 993
939 1005
939 1010
939 1036
939 1070
939 1076
939 1077
939 1082
939 1084
939 1097
939 1107
939 1124
939 1132
939 1141
939 1142
939 1143
939 1184
939 1188
939 1189
939 1843
940 941
940 945
940 954
940 972
940 978
940 991
940 1013
940 1014
940 1024
940 1031
940 1032
940 1036
940 1038
940 1039
940 1046
940 1050
940 1056
940 1061
940 1072
940 1085
940 1114
940 1118
940 1132
940 1142
940 1158
940 1171
940 1180
940 1189
940 1190
941 966
941 978
941 981
941 986
941 993
941 997
941 1000
941 1008
941 1010
941 1016
941 1025
941 1041
941 1056
941 1061
941 1086
941 1122
941 1132
941 1156
941 1160
941 1172
941 1789
942 944
942 951
942 954
942 959
942 978
942 983
942 987
942 992
942 994
942 998
942 1019
942 1021
942 1026
942 1031
942 1055
942 1056
942 1058
942 1062
942 1063
942 1064
942 1071
942 1083
942 1090
942 1099
942 1117
942 1123
942 1124
942 1157
942 1160
942 1171
942 1175
942 1191
942 1196
943 948
943 951
943 976
943 981
943 991
943 995
943 1012
943 1068
943 1094
943 1095
943 1111
943 1118
943 1123
943 1131
943 1146
943 1162
943 1183
943 1753
944 972
944 973
944 980
944 988
944 996
944 1006
944 1009
944 1022
944 1034
944 1037
944 1045
944 1065
944 1066
944 1085
944 1092
944 1105
944 1115
944 1125
944 1150
944 1152
944 1162
944 1175
944 1181
944 1184
944 1197
944 1514
945 969
945 993
945 998
945 1005
945 1017
945 1018
945 1033
945 1034
945 1037
945 1043
945 1046
945 1050
945 1067
945 1072
945 1085
945 1097
945 1102
945 1114
945 1116
945 1142
945 1171
945 1638
946 953
946 961
946 980
946 986
946 992
946 998
946 1003
946 1004
946 1024
946 1026
946 1027
946 1050
946 1062
946 1078
946 1081
946 1093
946 1095
946 1101
946 1102
946 1105
946 1115
946 1127
946 1128
946 1149
946 1150
946 1157
946 1163
946 1185
946 1191
946 1199
946 1226
946 1583
946 1832
947 959
947 962
947 974
947 985
947 993
947 1020
947 1021
947 1036
947 1037
947 1043
947 1044
947 1049
947 1052
947 1065
947 1094
947 1104
947 1121
947 1132
947 1148
947 1150
947 1151
947 1173
947 1179
947 1181
947 1199
948 958
948 969
948 971
948 1000
948 1009
948 1013
948 1018
948 1021
948 1029
948 1034
948 1036
948 1044
948 1053
948 1054
948 1075
948 1078
948 1092
948 1111
948 1134
948 1141
948 1147
948 1148
948 1175
948 1182
948 1190
948 1191
949 960
949 964
949 968
949 971
949 980
949 987
949 991
949 992
949 1008
949 1026
949 1027
949 1036
949 1037
949 1061
949 1062
949 1066
949 1075
949 1080
949 1082
949 1098
949 1104
949 1127
949 1139
949 1167
949 1177
949 1197
949 1290
950 954
950 968
950 988
950 1025
950 1040
950 1070
950 1086
950 1091
950 1098
950 1099
950 1113
950 1121
950 1122
950 1140
950 1146
950 1148
950 1155
950 1157
950 1159
950 1162
950 1164
950 1165
950 1173
950 1182
950 1187
950 1194
950 1195
950 1745
951 952
951 954
951 966
951 974
951 993
951 1002
951 1017
951 1022
951 1041
951 1042
951 1050
951 1054
951 1055
951 1062
951 1064
951 1066
951 1068
951 1073
951 1078
951 1081
951 1086
951 1087
951 1099
951 1100
951 1112
951 1114
951 1127
951 1132
951 1142
951 1149
951 1165
951 1175
951 1224
951 1253
951 1688
952 963
952 966
952 971
952 973
952 979
952 986
952 1005
952 1007
952 1013
952 1034
952 1048
952 1049
952 1097
952 1133
952 1146
952 1157
952 1161
952 1413
953 970
953 971
953 974
953 975
953 987
953 990
953 1011
953 1012
953 1016
953 1023
953 1028
953 1030
953 1035
953 1042
953 1044
953 1064
953 1069
953 1094
953 1101
953 1111
953 1112
953 1117
953 1126
953 1134
953 1141
953 1143
953 1145
953 1169
953 1182
954 970
954 988
954 991
954 994
954 1004
954 1020
954 1022
954 1040
954 1051
954 1053
954 1072
954 1082
954 1087
954 1095
954 1097
954 1098
954 1119
954 1120
954 1132
954 1164
955 958
955 974
955 983
955 986
955 991
955 1001
955 1002
955 1005
955 1007
955 1029
955 1037
955 1056
955 1060
955 1088
955 1096
955 1116
955 1117
955 1121
955 1126
955 1137
955 1138
955 1140
955 1157
955 1158
955 1196
955 1197
956 966
956 968
956 982
956 984
956 985
956 988
956 1006
956 1008
956 1009
956 1029
956 1031
956 1058
956 1061
956 1064
956 1073
956 1075
956 1081
956 1085
956 1086
956 1099
956 1103
956 1109
956 1111
956 1114
956 1126
956 1130
956 1133
956 1134
956 1158
956 1163
956 1164
956 1174
956 1175
956 1179
956 1193
956 1199
957 961
957 989
957 990
957 1001
957 1044
957 1065
957 1073
957 1074
957 1091
957 1096
957 1116
957 1121
957 1136
957 1160
957 1183
957 1188
958 961
958 962
958 966
958 987
958 988
958 989
958 997
958 1032
958 1054
958 1066
958 1075
958 1079
958 1095
958 1096
958 1107
958 1110
958 1123
958 1124
958 1130
958 1133
958 1134
958 1141
958 1144
958 1173
958 1178
958 1182
958 1547
959 973
959 978
959 985
959 987
959 992
959 1005
959 1023
959 1033
959 1038
959 1040
959 1043
959 1045
959 1051
959 1066
959 1081
959 1085
959 1090
959 1092
959 1103
959 1121
959 1122
959 1146
959 1158
959 1170
959 1178
960 970
960 971
960 995
960 1015
960 1041
960 1055
960 1071
960 1072
960 1086
960 1088
960 1089
960 1097
960 1111
960 1121
960 1127
960 1136
960 1140
960 1164
960 1171
960 1628
960 1770
961 967
961 980
961 991
961 993
961 994
961 1008
961 1026
961 1042
961 1043
961 1049
961 1051
961 1066
961 1069
961 1078
961 1105
961 1120
961 1122
961 1127
961 1142
961 1165
961 1172
961 1179
961 1182
961 1191
961 1402
962 990
962 993
962 1011
962 1019
962 1038
962 1041
962 1043
962 1053
962 1066
962 1081
962 1084
962 1091
962 1098
962 1105
962 1116
962 1122
962 1125
962 1126
962 1135
962 1137
962 1140
962 1148
962 1155
962 1157
962 1175
962 1506
962 1594
963 998
963 1002
963 1003
963 1007
963 1009
963 1024
963 1033
963 1059
963 1060
963 1065
963 1078
963 1083
963 1095
963 1103
963 1107
963 1114
963 1127
963 1155
963 1169
963 1177
963 1193
963 1195
964 965
964 972
964 973
964 981
964 983
964 1000
964 1001
964 1004
964 1006
964 1012
964 1029
964 1048
964 1057
964 1068
964 1076
964 1088
964 1105
964 1117
964 1118
964 1119
964 1163
964 1168
964 1171
964 1177
964 1182
964 1354
964 1360
965 974
965 986
965 991
965 1022
965 1027
965 1028
965 1031
965 1071
965 1086
965 1099
965 1100
965 1106
965 1122
965 1141
965 1150
965 1161
965 1174
965 1188
965 1194
965 1197
965 1303
966 968
966 984
966 1009
966 1028
966 1032
966 1035
966 1084
966 1087
966 1094
966 1105
966 1112
966 1121
966 1137
966 1143
966 1148
966 1167
966 1169
966 1176
966 1195
966 1196
966 1199
967 971
967 974
967 990
967 1011
967 1031
967 1039
967 1043
967 1061
967 1081
967 1082
967 1083
967 1086
967 1095
967 1107
967 1124
967 1145
967 1148
967 1150
967 1157
967 1158
967 1173
967 1189
967 1191
967 1196
968 990
968 1001
968 1022
968 1026
968 1075
968 1077
968 1079
968 1081
968 1092
968 1115
968 1144
968 1157
968 1162
968 1163
968 1178
968 1183
968 1186
968 1192
969 1003
969 1019
969 1021
969 1026
969 1027
969 1029
969 1035
969 1045
969 1060
969 1066
969 1072
969 1095
969 1103
969 1110
969 1119
969 1136
969 1166
969 1169
969 1172
969 1183
969 1185
969 1193
969 1195
969 1197
969 1217
969 1308
969 1493
969 1505
970 972
970 980
970 982
970 1010
970 1018
970 1021
970 1024
970 1044
970 1045
970 1058
970 1061
970 1064
970 1067
970 1084
970 1096
970 1119
970 1137
970 1139
970 1144
970 1157
970 1176
970 1181
971 974
971 978
971 986
971 989
971 1002
971 1008
971 1021
971 1035
971 1039
971 1046
971 1059
971 1068
971 1073
971 1075
971 1082
971 1090
971 1120
971 1132
971 1141
971 1148
971 1152
971 1157
971 1159
971 1166
971 1170
971 1193
971 1195
971 1684
972 980
972 1003
972 1065
972 1083
972 1097
972 1117
972 1149
972 1164
972 1192
972 1822
973 979
973 983
973 994
973 999
973 1002
973 1010
973 1021
973 1025
973 1035
973 1037
973 1039
973 1044
973 1046
973 1058
973 1067
973 1085
973 1091
973 1109
973 1116
973 1117
973 1126
973 1129
973 1145
973 1150
973 1153
973 1175
973 1176
973 1188
973 1197
973 1198
974 975
974 981
974 983
974 990
974 1006
974 1030
974 1039
974 1042
974 1049
974 1051
974 1054
974 1065
974 1069
974 1071
974 1078
974 1084
974 1090
974 1106
974 1123
974 1124
974 1127
974 1147
974 1148
974 1151
974 1165
974 1174
974 1565
975 997
975 999
975 1038
975 1047
975 1048
975 1059
975 1076
975 1080
975 1084
975 1085
975 1097
975 1127
975 1138
975 1140
975 1156
975 1163
975 1176
975 1179
975 1180
975 1196
975 1197
975 1383
975 1805
976 979
976 982
976 986
976 994
976 1002
976 1008
976 1021
976 1039
976 1080
976 1093
976 1096
976 1105
976 1135
976 1139
976 1140
976 1141
976 1146
976 1156
976 1183
976 1194
977 979
977 983
977 993
977 1011
977 1042
977 1043
977 1045
977 1056
977 1080
977 1082
977 1088
977 1102
977 1111
977 1126
977 1132
977 1138
977 1151
977 1160
977 1177
977 1195
978 980
978 986
978 990
978 1007
978 1038
978 1046
978 1062
978 1082
978 1090
978 1096
978 1113
978 1124
978 1135
978 1138
978 1139
978 1151
978 1165
978 1172
978 1199
979 988
979 993
979 1013
979 1019
979 1023
979 1025
979 1041
979 1060
979 1062
979 1066
979 1087
979 1095
979 1110
979 1155
979 1164
979 1165
979 1177
979 1188
979 1803
980 1001
980 1002
980 1013
980 1027
980 1031
980 1033
980 1034
980 1059
980 1066
980 1093
980 1110
980 1131
980 1132
980 1140
980 1141
980 1150
980 1157
980 1182
980 1183
980 1190
980 1197
980 1721
981 1005
981 1012
981 1013
981 1028
981 1031
981 1036
981 1045
981 1049
981 1050
981 1060
981 1065
981 1077
981 1098
981 1114
981 1120
981 1125
981 1128
981 1148
981 1154
981 1156
981 1160
981 1170
981 1171
981 1177
981 1184
981 1187
982 983
982 984
982 992
982 995
982 1009
982 1046
982 1064
982 1078
982 1085
982 1094
982 1100
982 1123
982 1128
982 1135
982 1153
982 1168
982 1177
982 1178
982 1179
982 1181
982 1607
983 988
983 990
983 1014
983 1026
983 1030
983 1043
983 1053
983 1059
983 1064
983 1070
983 1099
983 1108
983 1122
983 1125
983 1126
983 1137
983 1138
983 1159
983 1164
983 1165
983 1183
983 1186
983 1192
984 986
984 991
984 995
984 996
984 999
984 1002
984 1024
984 1040
984 1050
984 1056
984 1068
984 1071
984 1086
984 1088
984 1103
984 1112
984 1116
984 1118
984 1121
984 1122
984 1128
984 1135
984 1136
984 1156
984 1161
984 1183
984 1191
985 1010
985 1027
985 1034
985 1044
985 1053
985 1055
985 1059
985 1061
985 1086
985 1088
985 1099
985 1102
985 1110
985 1140
985 1146
985 1147
985 1151
985 1154
985 1158
985 1162
985 1179
985 1181
985 1189
985 1589
986 987
986 989
986 993
986 1034
986 1038
986 1042
986 1049
986 1063
986 1071
986 1077
986 1082
986 1083
986 1086
986 1099
986 1102
986 1103
986 1104
986 1107
986 1122
986 1133
986 1135
986 1148
986 1158
986 1163
986 1167
986 1177
986 1191
986 1194
986 1199
986 1274
987 1010
987 1023
987 1026
987 1027
987 1031
987 1038
987 1048
987 1062
987 1083
987 1089
987 1095
987 1097
987 1102
987 1105
987 1106
987 1119
987 1122
987 1128
987 1141
987 1156
987 1161
987 1162
987 1172
987 1192
987 1460
987 1656
988 995
988 999
988 1011
988 1032
988 1040
988 1050
988 1058
988 1061
988 1068
988 1079
988 1095
988 1098
988 1104
988 1107
988 1110
988 1122
988 1144
988 1145
988 1148
988 1160
988 1195
988 1196
989 1005
989 1008
989 1010
989 1034
989 1055
989 1064
989 1066
989 1072
989 1075
989 1088
989 1105
989 1108
989 1109
989 1116
989 1127
989 1134
989 1140
989 1144
989 1155
989 1167
989 1171
989 1180
989 1182
989 1188
989 1192
989 1198
990 992
990 1007
990 1012
990 1029
990 1032
990 1033
990 1039
990 1046
990 1054
990 1060
990 1079
990 1082
990 1083
990 1086
990 1111
990 1118
990 1119
990 1124
990 1128
990 1131
990 1143
990 1148
990 1156
990 1168
990 1172
990 1177
990 1192
990 1196
991 1003
991 1009
991 1018
991 1021
991 1026
991 1028
991 1031
991 1045
991 1047
991 1056
991 1062
991 1068
991 1071
991 1085
991 1094
991 1102
991 1105
991 1132
991 1133
991 1144
991 1165
991 1168
991 1169
991 1189
991 1191
991 1481
992 1006
992 1009
992 1018
992 1071
992 1073
992 1096
992 1100
992 1103
992 1117
992 1138
992 1145
992 1148
992 1151
992 1187
992 1196
992 1966
993 999
993 1008
993 1018
993 1019
993 1022
993 1040
993 1046
993 1059
993 1062
993 1080
993 1108
993 1113
993 1121
993 1126
993 1127
993 1133
993 1138
993 1140
993 1144
993 1152
993 1172
993 1178
993 1184
993 1196
993 1198
993 1341
994 1018
994 1029
994 1033
994 1047
994 1057
994 1070
994 1075
994 1085
994 1088
994 1102
994 1105
994 1109
994 1113
994 1120
994 1130
994 1142
994 1155
994 1170
994 1179
994 1181
994 1188
995 996
995 998
995 1000
995 1006
995 1007
995 1012
995 1016
995 1020
995 1026
995 1032
995 1034
995 1040
995 1052
995 1073
995 1078
995 1092
995 1103
995 1124
995 1133
995 1136
995 1139
995 1146
995 1148
995 1152
995 1161
995 1165
995 1167
995 1169
995 1194
996 1002
996 1022
996 1033
996 1035
996 1040
996 1053
996 1061
996 1066
996 1070
996 1072
996 1076
996 1083
996 1100
996 1127
996 1128
996 1139
996 1145
996 1158
996 1173
996 1178
996 1498
996 1676
996 1986
997 999
997 1000
997 1001
997 1007
997 1058
997 1071
997 1072
997 1083
997 1099
997 1106
997 1108
997 1114
997 1118
997 1121
997 1123
997 1124
997 1127
997 1139
997 1157
997 1165
997 1181
997 1186
997 1192
997 1196
998 1001
998 1025
998 1033
998 1043
998 1050
998 1052
998 1055
998 1090
998 1091
998 1092
998 1114
998 1132
998 1136
998 1141
998 1152
998 1160
998 1168
998 1188
998 1191
998 1197
998 1215
999 1001
999 1038
999 1045
999 1053
999 1074
999 1081
999 1088
999 1099
999 1111
999 1116
999 1117
999 1118
999 1132
999 1139
999 1169
999 1186
999 1188
999 1194
999 1197
1000 1001
1000 1034
1000 1035
1000 1039
1000 1041
1000 1042
1000 1052
1000 1056
1000 1064
1000 1071
1000 1074
1000 1095
1000 1108
1000 1119
1000 1147
1000 1161
1000 1167
1000 1197
1000 1199
1000 1819
1000 1823
1001 1007
1001 1033
1001 1048
1001 1084
1001 1088
1001 1090
1001 1094
1001 1095
1001 1096
1001 1100
1001 1110
1001 1118
1001 1143
1001 1145
1001 1151
1001 1155
1001 1161
1001 1185
1001 1198
1001 1590
1002 1006
1002 1009
1002 1015
1002 1026
1002 1029
1002 1030
1002 1036
1002 1054
1002 1057
1002 1060
1002 1063
1002 1078
1002 1079
1002 1080
1002 1090
1002 1110
1002 1120
1002 1133
1002 1143
1002 1157
1002 1160
1002 1165
1002 1167
1002 1169
1002 1172
1002 1181
1002 1187
1002 1195
1002 1468
1002 1799
1002 1905
1003 1006
1003 1007
1003 1014
1003 1020
1003 1023
1003 1028
1003 1034
1003 1044
1003 1047
1003 1055
1003 1058
1003 1073
1003 1074
1003 1105
1003 1111
1003 1114
1003 1117
1003 1118
1003 1134
1003 1142
1003 1173
1003 1181
1003 1185
1003 1190
1004 1044
1004 1052
1004 1053
1004 1066
1004 1092
1004 1095
1004 1098
1004 1102
1004 1120
1004 1122
1004 1133
1004 1135
1004 1138
1004 1143
1004 1181
1004 1184
1004 1190
1004 1194
1005 1026
1005 1028
1005 1033
1005 1049
1005 1056
1005 1069
1005 1086
1005 1087
1005 1091
1005 1114
1005 1120
1005 1126
1005 1132
1005 1135
1005 1138
1005 1139
1005 1164
1005 1166
1005 1176
1005 1185
1005 1186
1005 1727
1006 1015
1006 1017
1006 1025
1006 1029
1006 1030
1006 1068
1006 1079
1006 1082
1006 1084
1006 1096
1006 1109
1006 1120
1006 1136
1006 1153
1006 1174
1006 1193
1006 1194
1006 1294
1007 1022
1007 1031
1007 1034
1007 1049
1007 1061
1007 1062
1007 1065
1007 1083
1007 1088
1007 1112
1007 1123
1007 1125
1007 1145
1007 1154
1007 1159
1007 1168
1007 1171
1007 1189
1007 1190
1007 1192
1007 1193
1008 1027
1008 1060
1008 1077
1008 1078
1008 1084
1008 1103
1008 1114
1008 1120
1008 1130
1008 1152
1008 1184
1009 1017
1009 1021
1009 1027
1009 1037
1009 1040
1009 1043
1009 1044
1009 1053
1009 1054
1009 1062
1009 1110
1009 1116
1009 1125
1009 1145
1009 1157
1009 1158
1009 1172
1009 1175
1009 1178
1009 1181
1009 1182
1009 1183
1010 1014
1010 1031
1010 1054
1010 1060
1010 1062
1010 1068
1010 1073
1010 1075
1010 1077
1010 1085
1010 1088
1010 1099
1010 1111
1010 1132
1010 1136
1010 1138
1010 1151
1010 1173
1010 1188
1010 1191
1010 1816
1011 1013
1011 1017
1011 1027
1011 1038
1011 1056
1011 1060
1011 1069
1011 1084
1011 1089
1011 1116
1011 1123
1011 1132
1011 1134
1011 1151
1011 1152
1011 1153
1011 1156
1011 1164
1011 1175
1011 1179
1011 1181
1011 1182
1011 1183
1011 1186
1012 1023
1012 1026
1012 1029
1012 1032
1012 1033
1012 1037
1012 1053
1012 1055
1012 1072
1012 1083
1012 1109
1012 1129
1012 1130
1012 1132
1012 1134
1012 1148
1012 1150
1012 1153
1012 1178
1012 1188
1012 1196
1012 1198
1012 1737
1012 1767
1013 1020
1013 1027
1013 1028
1013 1035
1013 1040
1013 1046
1013 1060
1013 1070
1013 1083
1013 1096
1013 1101
1013 1109
1013 1110
1013 1125
1013 1128
1013 1137
1013 1143
1013 1156
1013 1162
1013 1169
1013 1173
1013 1187
1014 1020
1014 1024
1014 1035
1014 1047
1014 1050
1014 1051
1014 1058
1014 1061
1014 1071
1014 1140
1014 1148
1014 1186
1014 1196
1014 1569
1014 1802
1015 1027
1015 1066
1015 1070
1015 1085
1015 1100
1015 1105
1015 1126
1015 1136
1015 1143
1015 1147
1015 1149
1015 1159
1015 1170
1015 1178
1015 1180
1015 1186
1015 1192
1016 1019
1016 1024
1016 1035
1016 1050
1016 1062
1016 1072
1016 1076
1016 1079
1016 1090
1016 1092
1016 1096
1016 1097
1016 1101
1016 1102
1016 1124
1016 1130
1016 1132
1016 1138
1016 1141
1016 1171
1016 1188
1016 1189
1016 1190
1016 1541
1016 1968
1017 1019
1017 1050
1017 1055
1017 1057
1017 1080
1017 1099
1017 1101
1017 1113
1017 1141
1017 1144
1017 1159
1017 1161
1017 1166
1017 1169
1017 1196
1017 1567
1018 1020
1018 1052
1018 1056
1018 1063
1018 1070
1018 1076
1018 1101
1018 1102
1018 1109
1018 1112
1018 1138
1018 1139
1018 1154
1018 1158
1018 1172
1018 1180
1018 1182
1018 1186
1018 1191
1018 1196
1019 1060
1019 1068
1019 1073
1019 1081
1019 1084
1019 1088
1019 1106
1019 1109
1019 1115
1019 1124
1019 1125
1019 1135
1019 1144
1019 1151
1019 1155
1019 1170
1019 1190
1020 1036
1020 1044
1020 1045
1020 1047
1020 1050
1020 1051
1020 1080
1020 1089
1020 1108
1020 1121
1020 1125
1020 1128
1020 1132
1020 1135
1020 1144
1020 1149
1020 1153
1020 1161
1020 1174
1020 1176
1020 1193
1020 1197
1021 1022
1021 1050
1021 1052
1021 1075
1021 1077
1021 1084
1021 1085
1021 1101
1021 1122
1021 1130
1021 1138
1021 1140
1021 1146
1021 1149
1021 1152
1021 1164
1021 1169
1021 1177
1022 1023
1022 1049
1022 1068
1022 1070
1022 1082
1022 1093
1022 1097
1022 1101
1022 1104
1022 1107
1022 1115
1022 1121
1022 1125
1022 1142
1022 1160
1022 1164
1022 1171
1022 1175
1022 1176
1022 1199
1022 1356
1022 1382
1023 1028
1023 1036
1023 1039
1023 1045
1023 1054
1023 1060
1023 1075
1023 1090
1023 1113
1023 1116
1023 1117
1023 1128
1023 1150
1023 1168
1023 1169
1023 1179
1023 1190
1023 1195
1023 1353
1024 1025
1024 1040
1024 1047
1024 1048
1024 1097
1024 1106
1024 1121
1024 1133
1024 1135
1024 1149
1024 1170
1024 1183
1024 1186
1024 1189
1024 1194
1024 1437
1025 1026
1025 1032
1025 1051
1025 1058
1025 1069
1025 1079
1025 1082
1025 1098
1025 1112
1025 1118
1025 1131
1025 1133
1025 1143
1025 1149
1025 1150
1025 1155
1025 1166
1025 1168
1025 1193
1026 1045
1026 1054
1026 1070
1026 1071
1026 1074
1026 1078
1026 1082
1026 1085
1026 1099
1026 1100
1026 1112
1026 1118
1026 1119
1026 1120
1026 1132
1026 1155
1026 1168
1026 1170
1026 1175
1026 1195
1026 1418
1027 1030
1027 1034
1027 1061
1027 1089
1027 1095
1027 1107
1027 1110
1027 1117
1027 1118
1027 1119
1027 1126
1027 1127
1027 1144
1027 1163
1027 1199
1028 1046
1028 1069
1028 1070
1028 1078
1028 1129
1028 1131
1028 1149
1028 1154
1028 1164
1028 1173
1028 1175
1028 1179
1028 1192
1028 1463
1029 1031
1029 1037
1029 1049
1029 1056
1029 1068
1029 1071
1029 1077
1029 1083
1029 1098
1029 1104
1029 1107
1029 1109
1029 1118
1029 1123
1029 1124
1029 1129
1029 1133
1029 1135
1029 1145
1029 1153
1029 1155
1029 1157
1029 1158
1029 1165
1029 1169
1029 1173
1029 1187
1029 1189
1030 1040
1030 1049
1030 1059
1030 1067
1030 1070
1030 1072
1030 1074
1030 1091
1030 1103
1030 1113
1030 1123
1030 1124
1030 1137
1030 1161
1030 1169
1030 1174
1030 1182
1030 1183
1030 1190
1030 1192
1030 1249
1031 1046
1031 1051
1031 1083
1031 1092
1031 1097
1031 1104
1031 1115
1031 1118
1031 1125
1031 1128
1031 1131
1031 1158
1031 1173
1031 1180
1031 1185
1032 1042
1032 1054
1032 1060
1032 1075
1032 1089
1032 1091
1032 1092
1032 1093
1032 1103
1032 1110
1032 1116
1032 1126
1032 1131
1032 1145
1032 1175
1032 1193
1032 1199
1032 1384
1033 1041
1033 1060
1033 1068
1033 1069
1033 1078
1033 1090
1033 1104
1033 1105
1033 1115
1033 1117
1033 1133
1033 1140
1033 1149
1033 1158
1033 1167
1033 1172
1033 1576
1034 1039
1034 1042
1034 1043
1034 1053
1034 1061
1034 1062
1034 1069
1034 1071
1034 1075
1034 1093
1034 1094
1034 1115
1034 1123
1034 1128
1034 1143
1034 1146
1034 1179
1034 1193
1034 1209
1035 1037
1035 1046
1035 1052
1035 1054
1035 1070
1035 1095
1035 1117
1035 1118
1035 1144
1035 1157
1035 1180
1035 1187
1035 1197
1036 1040
1036 1045
1036 1050
1036 1063
1036 1067
1036 1068
1036 1073
1036 1079
1036 1085
1036 1105
1036 1116
1036 1134
1036 1154
1036 1156
1036 1165
1036 1183
1036 1190
1036 1194
1037 1039
1037 1047
1037 1060
1037 1065
1037 1072
1037 1074
1037 1076
1037 1081
1037 1083
1037 1084
1037 1096
1037 1112
1037 1132
1037 1141
1037 1145
1037 1152
1037 1183
1037 1187
1037 1188
1037 1194
1038 1044
1038 1056
1038 1059
1038 1089
1038 1104
1038 1108
1038 1149
1038 1155
1038 1166
1038 1176
1038 1182
1039 1045
1039 1063
1039 1076
1039 1085
1039 1091
1039 1104
1039 1115
1039 1118
1039 1132
1039 1137
1039 1138
1039 1139
1039 1144
1039 1155
1039 1171
1039 1175
1039 1188
1039 1192
1039 1195
1040 1055
1040 1057
1040 1061
1040 1064
1040 1078
1040 1117
1040 1141
1040 1144
1040 1152
1040 1158
1040 1160
1040 1198
1041 1048
1041 1064
1041 1066
1041 1080
1041 1085
1041 1097
1041 1106
1041 1109
1041 1113
1041 1128
1041 1140
1041 1148
1041 1162
1041 1164
1041 1172
1041 1176
1041 1187
1041 1576
1041 1810
1042 1068
1042 1070
1042 1078
1042 1087
1042 1090
1042 1099
1042 1107
1042 1113
1042 1117
1042 1134
1042 1142
1042 1151
1042 1167
1042 1622
1043 1065
1043 1114
1043 1129
1043 1133
1043 1140
1043 1154
1043 1160
1043 1179
1043 1188
1043 1193
1043 1197
1043 1199
1043 1275
1044 1046
1044 1062
1044 1084
1044 1085
1044 1095
1044 1096
1044 1110
1044 1114
1044 1120
1044 1128
1044 1145
1044 1165
1044 1169
1044 1182
1044 1198
1044 1222
1044 1815
1045 1052
1045 1053
1045 1055
1045 1065
1045 1071
1045 1095
1045 1099
1045 1100
1045 1109
1045 1111
1045 1140
1045 1141
1045 1147
1045 1148
1045 1185
1045 1197
1046 1059
1046 1096
1046 1100
1046 1107
1046 1108
1046 1130
1046 1152
1046 1154
1046 1167
1046 1195
1047 1050
1047 1051
1047 1055
1047 1077
1047 1081
1047 1095
1047 1105
1047 1120
1047 1141
1047 1144
1047 1145
1047 1154
1047 1162
1047 1167
1047 1268
1048 1054
1048 1070
1048 1071
1048 1097
1048 1098
1048 1105
1048 1106
1048 1113
1048 1122
1048 1136
1048 1140
1048 1151
1048 1176
1048 1183
1048 1189
1048 1193
1049 1051
1049 1080
1049 1094
1049 1106
1049 1107
1049 1116
1049 1123
1049 1124
1049 1131
1049 1147
1049 1152
1049 1158
1049 1170
1049 1171
1049 1199
1050 1057
1050 1061
1050 1080
1050 1082
1050 1097
1050 1099
1050 1109
1050 1119
1050 1122
1050 1128
1050 1131
1050 1138
1050 1142
1050 1157
1050 1168
1050 1173
1050 1827
1051 1053
1051 1076
1051 1081
1051 1086
1051 1094
1051 1098
1051 1106
1051 1112
1051 1124
1051 1130
1051 1141
1051 1154
1051 1171
1051 1244
1051 1391
1052 1055
1052 1060
1052 1064
1052 1068
1052 1081
1052 1082
1052 1083
1052 1086
1052 1098
1052 1099
1052 1100
1052 1109
1052 1110
1052 1119
1052 1135
1052 1153
1052 1158
1052 1164
1052 1176
1052 1187
1052 1188
1053 1055
1053 1066
1053 1076
1053 1081
1053 1082
1053 1083
1053 1084
1053 1088
1053 1095
1053 1101
1053 1106
1053 1111
1053 1114
1053 1117
1053 1121
1053 1122
1053 1123
1053 1128
1053 1146
1053 1155
1053 1182
1053 1438
1053 1847
1054 1082
1054 1085
1054 1095
1054 1096
1054 1131
1054 1135
1054 1150
1054 1156
1054 1160
1054 1172
1054 1186
1054 1575
1054 1769
1055 1056
1055 1057
1055 1061
1055 1079
1055 1083
1055 1086
1055 1088
1055 1089
1055 1103
1055 1113
1055 1136
1055 1143
1055 1150
1055 1158
1055 1163
1055 1166
1055 1171
1055 1182
1055 1189
1055 1196
1055 1197
1055 1245
1056 1063
1056 1070
1056 1077
1056 1102
1056 1149
1056 1150
1056 1179
1056 1180
1056 1182
1056 1184
1056 1189
1056 1196
1056 1199
1056 1997
1057 1075
1057 1082
1057 1100
1057 1119
1057 1130
1057 1131
1057 1142
1057 1161
1057 1194
1057 1802
1058 1060
1058 1090
1058 1096
1058 1111
1058 1112
1058 1120
1058 1130
1058 1132
1058 1136
1058 1165
1058 1168
1058 1179
1058 1184
1058 1196
1058 1540
1059 1063
1059 1092
1059 1098
1059 1110
1059 1111
1059 1119
1059 1130
1059 1137
1059 1142
1059 1168
1059 1816
1060 1085
1060 1104
1060 1144
1060 1145
1060 1146
1060 1149
1060 1151
1060 1171
1060 1172
1060 1173
1060 1179
1060 1193
1061 1092
1061 1094
1061 1110
1061 1120
1061 1128
1061 1131
1061 1134
1061 1150
1061 1159
1061 1171
1061 1183
1061 1186
1061 1187
1061 1188
1061 1189
1061 1194
1061 1586
1062 1072
1062 1078
1062 1085
1062 1087
1062 1088
1062 1090
1062 1093
1062 1098
1062 1109
1062 1110
1062 1112
1062 1128
1062 1129
1062 1144
1062 1151
1062 1152
1062 1179
1062 1185
1062 1188
1062 1191
1063 1076
1063 1079
1063 1101
1063 1102
1063 1129
1063 1139
1063 1141
1063 1146
1063 1160
1063 1167
1063 1195
1064 1069
1064 1084
1064 1111
1064 1127
1064 1136
1064 1153
1064 1157
1064 1176
1064 1177
1064 1180
1064 1184
1064 1190
1065 1071
1065 1072
1065 1074
1065 1082
1065 1087
1065 1088
1065 1105
1065 1110
1065 1122
1065 1159
1065 1165
1065 1173
1065 1175
1065 1178
1065 1183
1065 1194
1065 1197
1066 1069
1066 1075
1066 1079
1066 1082
1066 1099
1066 1105
1066 1114
1066 1142
1066 1145
1066 1147
1066 1171
1066 1181
1066 1183
1066 1194
1067 1085
1067 1089
1067 1097
1067 1112
1067 1122
1067 1138
1067 1158
1067 1162
1067 1164
1067 1170
1067 1172
1067 1189
1067 1190
1068 1071
1068 1087
1068 1098
1068 1102
1068 1105
1068 1108
1068 1112
1068 1119
1068 1120
1068 1129
1068 1136
1068 1138
1068 1142
1068 1152
1068 1176
1068 1177
1068 1188
1068 1852
1069 1079
1069 1083
1069 1086
1069 1102
1069 1107
1069 1108
1069 1110
1069 1115
1069 1130
1069 1134
1069 1138
1069 1140
1069 1148
1069 1173
1069 1181
1069 1499
1069 1919
1069 1950
1070 1078
1070 1107
1070 1118
1070 1120
1070 1124
1070 1125
1070 1127
1070 1148
1070 1150
1070 1151
1070 1159
1070 1189
1070 1344
1070 1408
1070 1896
1071 1077
1071 1091
1071 1094
1071 1099
1071 1101
1071 1109
1071 1110
1071 1120
1071 1130
1071 1138
1071 1140
1071 1156
1071 1161
1071 1167
1071 1172
1071 1176
1071 1184
1071 1188
1071 1892
1072 1076
1072 1108
1072 1143
1072 1146
1072 1170
1072 1172
1072 1179
1073 1084
1073 1095
1073 1098
1073 1126
1073 1139
1073 1143
1073 1152
1073 1153
1073 1184
1073 1197
1074 1114
1074 1135
1074 1140
1074 1168
1074 1177
1074 1182
1074 1184
1074 1185
1074 1186
1074 1188
1074 1195
1074 1198
1074 1280
1075 1080
1075 1098
1075 1120
1075 1126
1075 1131
1075 1141
1075 1144
1075 1148
1075 1162
1075 1166
1075 1190
1075 1194
1075 1197
1075 1374
1075 1831
1076 1126
1076 1140
1076 1157
1076 1727
1077 1087
1077 1096
1077 1121
1077 1123
1077 1126
1077 1143
1077 1147
1077 1148
1077 1149
1077 1184
1077 1192
1077 1194
1077 1196
1078 1082
1078 1092
1078 1100
1078 1114
1078 1124
1078 1131
1078 1134
1078 1135
1078 1137
1078 1155
1078 1157
1078 1170
1078 1173
1078 1175
1078 1176
1078 1181
1078 1184
1078 1185
1078 1190
1078 1973
1079 1083
1079 1088
1079 1090
1079 1115
1079 1116
1079 1124
1079 1126
1079 1131
1079 1139
1079 1149
1079 1156
1079 1169
1079 1193
1079 1196
1079 1197
1080 1084
1080 1086
1080 1088
1080 1094
1080 1105
1080 1114
1080 1115
1080 1123
1080 1134
1080 1138
1080 1139
1080 1140
1080 1146
1080 1158
1080 1160
1080 1171
1080 1174
1080 1175
1080 1178
1080 1184
1080 1189
1081 1083
1081 1088
1081 1090
1081 1093
1081 1111
1081 1119
1081 1120
1081 1126
1081 1133
1081 1160
1081 1166
1081 1179
1081 1180
1081 1181
1081 1182
1081 1194
1081 1286
1081 1731
1082 1093
1082 1095
1082 1096
1082 1104
1082 1123
1082 1134
1082 1151
1082 1166
1082 1172
1082 1186
1082 1193
1082 1762
1083 1087
1083 1108
1083 1110
1083 1111
1083 1120
1083 1139
1083 1152
1083 1157
1083 1163
1083 1177
1083 1181
1083 1187
1083 1192
1083 1194
1083 1196
1083 1215
1083 1314
1083 1761
1084 1087
1084 1093
1084 1114
1084 1130
1084 1136
1084 1156
1084 1157
1084 1168
1084 1177
1084 1184
1084 1262
1084 1356
1085 1087
1085 1103
1085 1119
1085 1122
1085 1142
1085 1151
1085 1175
1085 1187
1085 1193
1085 1194
1086 1097
1086 1103
1086 1106
1086 1116
1086 1131
1086 1163
1086 1166
1086 1174
1086 1175
1086 1194
1086 1196
1086 1430
1087 1093
1087 1105
1087 1116
1087 1120
1087 1130
1087 1144
1087 1151
1087 1169
1087 1170
1087 1194
1088 1097
1088 1102
1088 1107
1088 1110
1088 1116
1088 1126
1088 1130
1088 1166
1088 1177
1088 1178
1088 1183
1088 1188
1088 1191
1088 1192
1089 1099
1089 1105
1089 1109
1089 1126
1089 1140
1089 1158
1089 1163
1089 1165
1089 1182
1089 1189
1090 1098
1090 1108
1090 1133
1090 1138
1090 1190
1091 1092
1091 1095
1091 1101
1091 1129
1091 1132
1091 1136
1091 1147
1091 1151
1091 1165
1091 1181
1091 1196
1092 1098
1092 1099
1092 1108
1092 1125
1092 1139
1092 1147
1092 1170
1092 1181
1092 1187
1092 1457
1092 1642
1093 1115
1093 1119
1093 1133
1093 1138
1093 1141
1093 1145
1093 1150
1093 1153
1093 1160
1093 1168
1093 1180
1093 1186
1094 1106
1094 1126
1094 1147
1094 1151
1094 1154
1094 1170
1094 1182
1094 1183
1094 1190
1094 1191
1094 1769
1095 1102
1095 1104
1095 1106
1095 1109
1095 1113
1095 1128
1095 1129
1095 1142
1095 1174
1095 1192
1095 1198
1096 1101
1096 1104
1096 1110
1096 1120
1096 1134
1096 1135
1096 1137
1096 1141
1096 1146
1096 1152
1096 1155
1096 1160
1096 1166
1096 1168
1096 1179
1096 1180
1096 1182
1096 1188
1097 1098
1097 1100
1097 1101
1097 1107
1097 1111
1097 1113
1097 1114
1097 1120
1097 1130
1097 1151
1097 1152
1097 1155
1097 1158
1097 1165
1097 1170
1097 1176
1097 1193
1097 1199
1097 1200
1097 1846
1098 1117
1098 1128
1098 1130
1098 1134
1098 1137
1098 1143
1098 1146
1098 1181
1098 1186
1098 1197
1098 1198
1098 1549
1099 1103
1099 1119
1099 1130
1099 1137
1099 1141
1099 1146
1099 1179
1099 1188
1100 1148
1100 1157
1100 1160
1100 1171
1100 1186
1100 1191
1100 1340
1101 1124
1101 1125
1101 1128
1101 1145
1101 1158
1101 1163
1101 1191
1101 1592
1102 1113
1102 1116
1102 1121
1102 1134
1102 1143
1102 1154
1102 1166
1102 1179
1102 1635
1103 1107
1103 1121
1103 1138
1103 1140
1103 1158
1103 1160
1103 1167
1103 1176
1103 1189
1103 1192
1103 1197
1104 1135
1104 1136
1104 1145
1104 1168
1104 1185
1104 1187
1104 1188
1105 1108
1105 1116
1105 1134
1105 1163
1105 1458
1106 1113
1106 1114
1106 1116
1106 1117
1106 1120
1106 1121
1106 1126
1106 1130
1106 1143
1106 1160
1106 1171
1106 1881
1107 1129
1107 1130
1107 1148
1107 1152
1107 1161
1107 1162
1107 1199
1108 1109
1108 1110
1108 1114
1108 1119
1108 1120
1108 1126
1108 1131
1108 1156
1108 1164
1108 1171
1108 1375
1108 1598
1109 1116
1109 1128
1109 1130
1109 1135
1109 1142
1109 1147
1109 1152
1109 1157
1109 1162
1109 1175
1109 1185
1109 1195
1109 1853
1109 1986
1110 1115
1110 1130
1110 1133
1110 1135
1110 1170
1111 1128
1111 1132
1111 1141
1111 1180
1111 1189
1111 1190
1111 1195
1111 1197
1112 1147
1112 1148
1112 1159
1112 1162
1112 1166
1113 1117
1113 1119
1113 1126
1113 1131
1113 1135
1113 1139
1113 1160
1113 1185
1113 1192
1113 1193
1113 1196
1114 1122
1114 1153
1114 1168
1114 1169
1114 1177
1114 1182
1114 1184
1114 1190
1114 1194
1115 1118
1115 1119
1115 1124
1115 1129
1115 1130
1115 1137
1115 1169
1115 1195
1115 1299
1115 1338
1115 1815
1116 1117
1116 1120
1116 1147
1116 1167
1116 1169
1116 1181
1116 1194
1117 1124
1117 1144
1117 1145
1117 1156
1117 1170
1117 1174
1117 1181
1117 1184
1117 1814
1118 1123
1118 1126
1118 1150
1118 1156
1118 1158
1118 1160
1118 1161
1118 1166
1118 1186
1118 1193
1118 1493
1119 1120
1119 1130
1119 1135
1119 1141
1119 1142
1119 1157
1119 1198
1119 1945
1120 1125
1120 1137
1120 1149
1120 1156
1120 1166
1120 1176
1120 1193
1121 1123
1121 1124
1121 1131
1121 1141
1121 1143
1121 1149
1121 1154
1121 1173
1121 1186
1121 1194
1121 1815
1122 1146
1122 1148
1122 1159
1122 1163
1122 1183
1123 1133
1123 1135
1123 1139
1123 1149
1123 1154
1123 1159
1123 1193
1123 1866
1124 1136
1124 1146
1124 1150
1124 1177
1124 1178
1124 1186
1125 1128
1125 1141
1125 1145
1125 1149
1125 1163
1125 1164
1125 1166
1125 1243
1125 1268
1125 1356
1125 1773
1126 1128
1126 1148
1126 1162
1126 1163
1126 1168
1126 1182
1126 1187
1127 1133
1127 1156
1127 1162
1127 1186
1127 1194
1127 1860
1128 1133
1128 1135
1128 1171
1128 1175
1128 1178
1128 1181
1128 1189
1128 1192
1128 1198
1128 1570
1129 1146
1129 1158
1129 1166
1129 1176
1130 1131
1130 1136
1130 1140
1130 1159
1130 1168
1130 1170
1130 1177
1130 1186
1130 1190
1130 1196
1130 1198
1131 1132
1131 1137
1131 1141
1131 1147
1131 1148
1131 1150
1131 1158
1131 1159
1131 1170
1131 1178
1131 1182
1131 1196
1132 1139
1132 1146
1132 1147
1132 1158
1132 1174
1132 1175
1132 1177
1132 1183
1132 1187
1132 1188
1132 1651
1132 1850
1133 1140
1133 1149
1133 1159
1133 1169
1133 1184
1133 1197
1134 1184
1134 1189
1134 1604
1135 1153
1135 1156
1135 1160
1135 1170
1135 1171
1135 1175
1135 1180
1135 1194
1135 1195
1136 1142
1136 1159
1136 1169
1136 1174
1136 1189
1137 1141
1137 1142
1137 1143
1137 1148
1137 1153
1137 1155
1137 1188
1138 1143
1138 1152
1138 1156
1138 1164
1138 1177
1138 1183
1139 1159
1139 1166
1139 1175
1139 1199
1139 1876
1139 1928
1140 1170
1140 1193
1140 1196
1140 1197
1140 1199
1140 1488
1141 1144
1141 1165
1141 1172
1141 1175
1141 1192
1142 1150
1142 1158
1142 1172
1142 1176
1142 1187
1142 1195
1143 1154
1143 1170
1143 1171
1143 1178
1143 1197
1143 1506
1144 1148
1144 1150
1144 1189
1145 1152
1145 1154
1145 1157
1145 1183
1145 1185
1145 1187
1145 1188
1146 1150
1146 1165
1146 1171
1146 1188
1146 1199
1146 1516
1147 1150
1147 1169
1147 1171
1147 1173
1147 1182
1147 1197
1147 1199
1148 1150
1148 1158
1148 1166
1149 1153
1149 1164
1149 1193
1149 1243
1149 1683
1150 1173
1150 1182
1150 1188
1150 1586
1151 1163
1151 1179
1151 1268
1152 1154
1152 1156
1152 1193
1152 1394
1152 1817
1153 1154
1153 1156
1153 1158
1153 1173
1154 1191
1154 1199
1155 1164
1155 1178
1155 1184
1155 1190
1155 1195
1155 1285
1155 1997
1156 1172
1156 1173
1156 1174
1156 1180
1156 1195
1157 1159
1157 1162
1157 1172
1157 1182
1157 1195
1157 1536
1158 1795
1159 1162
1160 1178
1160 1197
1161 1166
1161 1172
1161 1183
1161 1185
1161 1192
1161 1413
1162 1164
1162 1174
1162 1176
1162 1177
1162 1195
1162 1198
1162 1602
1162 1936
1163 1191
1163 1193
1163 1196
1163 1198
1163 1955
1164 1166
1164 1185
1164 1189
1164 1192
1164 1193
1166 1168
1166 1173
1166 1187
1166 1188
1166 1196
1167 1172
1167 1181
1167 1192
1168 1182
1168 1183
1168 1189
1169 1173
1169 1181
1169 1188
1170 1173
1170 1399
1170 1556
1170 1576
1170 1663
1171 1173
1171 1180
1171 1183
1171 1184
1171 1666
1171 1785
1172 1182
1172 1185
1172 1271
1172 1547
1173 1179
1174 1185
1174 1192
1174 1193
1174 1197
1175 1184
1175 1586
1176 1178
1176 1182
1176 1452
1176 1783
1177 1186
1177 1384
1177 1689
1178 1193
1178 1757
1179 1187
1179 1196
1179 1199
1180 1218
1180 1847
1181 1182
1181 1185
1181 1189
1181 1199
1182 1194
1182 1250
1183 1188
1183 1194
1183 1691
1184 1185
1185 1192
1185 1353
1186 1188
1186 1199
1188 1189
1188 1310
1189 1190
1189 1845
1190 1192
1190 1195
1190 1802
1191 1197
1191 1794
1192 1374
1194 1596
1194 1824
1195 1409
1197 1198
1198 1698
1199 1632
1200 1214
1200 1232
1200 1237
1200 1240
1200 1243
1200 1245
1200 1249
1200 1271
1200 1304
1200 1306
1200 1319
1200 1320
1200 1332
1200 1348
1200 1408
1200 1412
1200 1413
1200 1416
1200 1440
1200 1469
1200 1472
1200 1476
1200 1477
1200 1487
1200 1491
1200 1498
1200 1508
1200 1523
1200 1532
1200 1546
1200 1547
1200 1551
1200 1591
1201 1216
1201 1219
1201 1222
1201 1227
1201 1236
1201 1253
1201 1255
1201 1264
1201 1285
1201 1287
1201 1296
1201 1299
1201 1303
1201 1304
1201 1308
1201 1312
1201 1341
1201 1344
1201 1351
1201 1361
1201 1366
1201 1409
1201 1410
1201 1411
1201 1444
1201 1446
1201 1451
1201 1454
1201 1462
1201 1492
1201 1502
1201 1503
1201 1528
1201 1540
1201 1542
1201 1564
1201 1574
1201 1576
1201 1579
1202 1226
1202 1234
1202 1235
1202 1236
1202 1245
1202 1292
1202 1309
1202 1310
1202 1316
1202 1328
1202 1367
1202 1370
1202 1375
1202 1376
1202 1378
1202 1379
1202 1391
1202 1412
1202 1430
1202 1433
1202 1434
1202 1443
1202 1455
1202 1474
1202 1491
1202 1504
1202 1510
1202 1525
1202 1531
1202 1539
1202 1557
1202 1573
1202 1594
1202 1597
1202 1599
1203 1214
1203 1221
1203 1224
1203 1225
1203 1235
1203 1246
1203 1259
1203 1288
1203 1310
1203 1314
1203 1316
1203 1321
1203 1322
1203 1325
1203 1358
1203 1366
1203 1375
1203 1381
1203 1390
1203 1424
1203 1431
1203 1442
1203 1458
1203 1461
1203 1467
1203 1474
1203 1492
1203 1495
1203 1496
1203 1508
1203 1512
1203 1528
1203 1559
1203 1570
1203 1582
1204 1212
1204 1219
1204 1225
1204 1245
1204 1246
1204 1266
1204 1270
1204 1282
1204 1284
1204 1306
1204 1311
1204 1314
1204 1315
1204 1331
1204 1335
1204 1341
1204 1342
1204 1350
1204 1354
1204 1362
1204 1365
1204 1370
1204 1376
1204 1381
1204 1383
1204 1385
1204 1394
1204 1396
1204 1411
1204 1413
1204 1449
1204 1451
1204 1462
1204 1466
1204 1484
1204 1507
1204 1520
1204 1534
1204 1568
1204 1572
1204 1581
1204 1585
1204 1588
1204 1593
1204 1607
1204 1734
1205 1208
1205 1213
1205 1215
1205 1224
1205 1236
1205 1243
1205 1261
1205 1276
1205 1292
1205 1295
1205 1304
1205 1307
1205 1309
1205 1310
1205 1326
1205 1327
1205 1340
1205 1341
1205 1343
1205 1362
1205 1375
1205 1376
1205 1377
1205 1382
1205 1390
1205 1394
1205 1401
1205 1407
1205 1409
1205 1425
1205 1432
1205 1441
1205 1446
1205 1463
1205 1476
1205 1480
1205 1490
1205 1503
1205 1512
1205 1520
1205 1535
1205 1543
1205 1553
1205 1558
1205 1572
1205 1574
1205 1584
1206 1226
1206 1241
1206 1243
1206 1275
1206 1289
1206 1294
1206 1295
1206 1300
1206 1306
1206 1332
1206 1341
1206 1349
1206 1360
1206 1362
1206 1363
1206 1364
1206 1367
1206 1387
1206 1401
1206 1411
1206 1430
1206 1433
1206 1438
1206 1439
1206 1441
1206 1468
1206 1477
1206 1491
1206 1500
1206 1519
1206 1575
1206 1580
1206 1587
1206 1599
1207 1213
1207 1215
1207 1217
1207 1236
1207 1263
1207 1272
1207 1275
1207 1284
1207 1289
1207 1305
1207 1309
1207 1322
1207 1335
1207 1365
1207 1374
1207 1376
1207 1380
1207 1402
1207 1407
1207 1412
1207 1423
1207 1434
1207 1456
1207 1465
1207 1469
1207 1506
1207 1509
1207 1518
1207 1522
1207 1524
1207 1529
1207 1536
1207 1537
1207 1547
1207 1551
1207 1567
1207 1571
1207 1581
1207 1582
1207 1597
1207 1758
1207 1817
1208 1210
1208 1223
1208 1246
1208 1252
1208 1281
1208 1282
1208 1286
1208 1289
1208 1310
1208 1311
1208 1314
1208 1316
1208 1333
1208 1338
1208 1340
1208 1351
1208 1355
1208 1359
1208 1366
1208 1388
1208 1396
1208 1409
1208 1428
1208 1440
1208 1442
1208 1451
1208 1475
1208 1493
1208 1510
1208 1511
1208 1523
1208 1528
1208 1542
1208 1550
1208 1570
1208 1580
1208 1582
1208 1588
1209 1226
1209 1231
1209 1261
1209 1264
1209 1266
1209 1271
1209 1310
1209 1311
1209 1318
1209 1331
1209 1346
1209 1347
1209 1380
1209 1381
1209 1384
1209 1388
1209 1412
1209 1420
1209 1422
1209 1424
1209 1440
1209 1452
1209 1476
1209 1507
1209 1511
1209 1514
1209 1518
1209 1530
1209 1567
1209 1568
1209 1584
1209 1596
1210 1230
1210 1239
1210 1255
1210 1265
1210 1273
1210 1283
1210 1310
1210 1319
1210 1325
1210 1345
1210 1364
1210 1373
1210 1377
1210 1398
1210 1413
1210 1421
1210 1422
1210 1430
1210 1434
1210 1438
1210 1443
1210 1446
1210 1452
1210 1454
1210 1470
1210 1492
1210 1500
1210 1506
1210 1509
1210 1517
1210 1523
1210 1536
1210 1557
1210 1568
1210 1585
1211 1213
1211 1215
1211 1245
1211 1251
1211 1253
1211 1254
1211 1256
1211 1257
1211 1278
1211 1292
1211 1297
1211 1305
1211 1319
1211 1320
1211 1352
1211 1358
1211 1374
1211 1410
1211 1420
1211 1428
1211 1444
1211 1451
1211 1467
1211 1483
1211 1498
1211 1500
1211 1517
1211 1523
1211 1531
1211 1544
1211 1552
1211 1561
1211 1570
1211 1584
1211 1802
1212 1213
1212 1215
1212 1226
1212 1233
1212 1236
1212 1247
1212 1249
1212 1252
1212 1253
1212 1271
1212 1306
1212 1316
1212 1322
1212 1324
1212 1329
1212 1334
1212 1336
1212 1338
1212 1341
1212 1373
1212 1385
1212 1397
1212 1405
1212 1408
1212 1415
1212 1420
1212 1436
1212 1459
1212 1473
1212 1476
1212 1484
1212 1487
1212 1500
1212 1504
1212 1507
1212 1525
1212 1529
1212 1541
1212 1568
1212 1580
1213 1216
1213 1218
1213 1220
1213 1223
1213 1236
1213 1238
1213 1247
1213 1254
1213 1258
1213 1261
1213 1262
1213 1270
1213 1277
1213 1280
1213 1301
1213 1306
1213 1326
1213 1334
1213 1337
1213 1353
1213 1365
1213 1373
1213 1375
1213 1378
1213 1381
1213 1384
1213 1387
1213 1408
1213 1422
1213 1434
1213 1435
1213 1442
1213 1451
1213 1460
1213 1470
1213 1476
1213 1485
1213 1493
1213 1520
1213 1537
1213 1572
1213 1574
1213 1579
1213 1595
1213 1719
1213 1913
1214 1216
1214 1221
1214 1244
1214 1261
1214 1267
1214 1268
1214 1272
1214 1279
1214 1290
1214 1296
1214 1297
1214 1309
1214 1321
1214 1322
1214 1335
1214 1337
1214 1342
1214 1348
1214 1349
1214 1357
1214 1367
1214 1371
1214 1378
1214 1388
1214 1408
1214 1437
1214 1446
1214 1460
1214 1474
1214 1480
1214 1489
1214 1509
1214 1515
1214 1537
1214 1544
1214 1548
1214 1564
1214 1568
1214 1598
1215 1223
1215 1239
1215 1253
1215 1254
1215 1276
1215 1280
1215 1304
1215 1309
1215 1314
1215 1318
1215 1321
1215 1323
1215 1333
1215 1335
1215 1336
1215 1338
1215 1346
1215 1347
1215 1372
1215 1373
1215 1380
1215 1382
1215 1384
1215 1393
1215 1399
1215 1407
1215 1408
1215 1421
1215 1429
1215 1436
1215 1457
1215 1473
1215 1484
1215 1491
1215 1528
1215 1558
1215 1560
1215 1573
1215 1575
1215 1579
1215 1580
1215 1587
1215 1589
1215 1850
1216 1218
1216 1247
1216 1259
1216 1273
1216 1279
1216 1291
1216 1292
1216 1298
1216 1302
1216 1314
1216 1329
1216 1331
1216 1342
1216 1349
1216 1362
1216 1364
1216 1373
1216 1385
1216 1387
1216 1404
1216 1407
1216 1446
1216 1454
1216 1458
1216 1460
1216 1470
1216 1491
1216 1493
1216 1529
1216 1544
1216 1575
1216 1578
1216 1583
1216 1587
1216 1593
1217 1218
1217 1248
1217 1253
1217 1254
1217 1258
1217 1282
1217 1283
1217 1286
1217 1333
1217 1343
1217 1353
1217 1359
1217 1360
1217 1365
1217 1371
1217 1377
1217 1378
1217 1382
1217 1410
1217 1413
1217 1426
1217 1435
1217 1445
1217 1448
1217 1457
1217 1461
1217 1477
1217 1488
1217 1491
1217 1501
1217 1510
1217 1515
1217 1542
1217 1547
1217 1551
1217 1560
1217 1563
1217 1564
1217 1572
1217 1576
1217 1595
1217 1599
1218 1221
1218 1226
1218 1232
1218 1252
1218 1254
1218 1255
1218 1271
1218 1274
1218 1275
1218 1276
1218 1280
1218 1288
1218 1302
1218 1304
1218 1321
1218 1324
1218 1325
1218 1330
1218 1335
1218 1337
1218 1347
1218 1359
1218 1361
1218 1373
1218 1383
1218 1393
1218 1402
1218 1407
1218 1411
1218 1414
1218 1420
1218 1429
1218 1434
1218 1452
1218 1454
1218 1475
1218 1479
1218 1494
1218 1495
1218 1513
1218 1525
1218 1538
1218 1553
1218 1558
1218 1571
1218 1596
1218 1634
1219 1231
1219 1235
1219 1237
1219 1238
1219 1261
1219 1264
1219 1278
1219 1280
1219 1293
1219 1294
1219 1330
1219 1340
1219 1346
1219 1347
1219 1351
1219 1354
1219 1355
1219 1397
1219 1412
1219 1429
1219 1435
1219 1451
1219 1458
1219 1461
1219 1469
1219 1497
1219 1512
1219 1517
1219 1519
1219 1526
1219 1539
1219 1550
1219 1551
1219 1567
1219 1573
1219 1582
1219 1591
1219 1593
1220 1222
1220 1224
1220 1239
1220 1243
1220 1246
1220 1249
1220 1275
1220 1302
1220 1315
1220 1326
1220 1338
1220 1348
1220 1350
1220 1359
1220 1363
1220 1368
1220 1376
1220 1410
1220 1415
1220 1438
1220 1478
1220 1479
1220 1488
1220 1508
1220 1524
1220 1529
1220 1540
1220 1543
1220 1545
1220 1553
1220 1557
1220 1592
1220 1811
1220 1994
1221 1223
1221 1226
1221 1243
1221 1244
1221 1262
1221 1263
1221 1264
1221 1266
1221 1268
1221 1271
1221 1275
1221 1279
1221 1283
1221 1322
1221 1336
1221 1340
1221 1341
1221 1350
1221 1377
1221 1389
1221 1411
1221 1414
1221 1432
1221 1453
1221 1461
1221 1476
1221 1478
1221 1482
1221 1501
1221 1510
1221 1525
1221 1538
1221 1545
1221 1556
1221 1566
1221 1580
1221 1588
1221 1591
1221 1592
1222 1230
1222 1231
1222 1238
1222 1261
1222 1272
1222 1274
1222 1317
1222 1330
1222 1336
1222 1360
1222 1365
1222 1377
1222 1382
1222 1383
1222 1384
1222 1387
1222 1402
1222 1414
1222 1433
1222 1439
1222 1467
1222 1494
1222 1498
1222 1506
1222 1520
1222 1527
1222 1532
1222 1533
1222 1545
1222 1547
1222 1558
1222 1575
1222 1580
1222 1593
1222 1595
1223 1234
1223 1240
1223 1246
1223 1253
1223 1258
1223 1284
1223 1286
1223 1293
1223 1300
1223 1313
1223 1326
1223 1334
1223 1356
1223 1385
1223 1392
1223 1398
1223 1400
1223 1416
1223 1418
1223 1432
1223 1436
1223 1442
1223 1454
1223 1460
1223 1464
1223 1465
1223 1471
1223 1477
1223 1485
1223 1500
1223 1519
1223 1547
1223 1558
1223 1566
1223 1581
1223 1583
1223 1590
1223 1594
1223 1618
1224 1236
1224 1246
1224 1248
1224 1249
1224 1259
1224 1277
1224 1287
1224 1294
1224 1314
1224 1331
1224 1333
1224 1356
1224 1362
1224 1366
1224 1393
1224 1394
1224 1405
1224 1415
1224 1454
1224 1468
1224 1478
1224 1482
1224 1486
1224 1494
1224 1518
1224 1521
1224 1529
1224 1537
1224 1565
1224 1568
1224 1570
1224 1572
1224 1586
1224 1588
1225 1234
1225 1264
1225 1266
1225 1290
1225 1295
1225 1296
1225 1298
1225 1318
1225 1325
1225 1329
1225 1330
1225 1338
1225 1357
1225 1365
1225 1380
1225 1389
1225 1400
1225 1401
1225 1410
1225 1420
1225 1429
1225 1460
1225 1468
1225 1482
1225 1511
1225 1514
1225 1548
1225 1551
1225 1559
1225 1563
1225 1565
1225 1569
1225 1571
1225 1591
1226 1227
1226 1231
1226 1234
1226 1235
1226 1251
1226 1283
1226 1289
1226 1306
1226 1307
1226 1321
1226 1335
1226 1340
1226 1349
1226 1356
1226 1372
1226 1376
1226 1378
1226 1381
1226 1390
1226 1393
1226 1406
1226 1418
1226 1419
1226 1423
1226 1425
1226 1433
1226 1442
1226 1469
1226 1474
1226 1486
1226 1491
1226 1495
1226 1516
1226 1541
1226 1551
1226 1556
1226 1559
1226 1560
1226 1575
1226 1580
1226 1585
1227 1228
1227 1243
1227 1261
1227 1270
1227 1283
1227 1297
1227 1313
1227 1317
1227 1319
1227 1323
1227 1378
1227 1388
1227 1406
1227 1412
1227 1413
1227 1426
1227 1427
1227 1434
1227 1451
1227 1461
1227 1467
1227 1474
1227 1493
1227 1503
1227 1513
1227 1515
1227 1530
1227 1546
1227 1573
1227 1574
1227 1575
1228 1229
1228 1238
1228 1240
1228 1241
1228 1245
1228 1254
1228 1260
1228 1280
1228 1282
1228 1302
1228 1335
1228 1346
1228 1352
1228 1353
1228 1356
1228 1374
1228 1376
1228 1387
1228 1400
1228 1411
1228 1457
1228 1458
1228 1460
1228 1468
1228 1476
1228 1483
1228 1484
1228 1507
1228 1537
1228 1542
1228 1549
1228 1563
1228 1565
1228 1570
1228 1577
1228 1578
1228 1591
1228 1599
1228 1791
1229 1231
1229 1252
1229 1255
1229 1264
1229 1288
1229 1300
1229 1302
1229 1313
1229 1317
1229 1319
1229 1324
1229 1337
1229 1350
1229 1364
1229 1365
1229 1367
1229 1373
1229 1387
1229 1394
1229 1398
1229 1425
1229 1430
1229 1479
1229 1484
1229 1487
1229 1492
1229 1501
1229 1503
1229 1512
1229 1517
1229 1530
1229 1531
1229 1542
1229 1563
1229 1567
1229 1568
1229 1573
1229 1574
1229 1580
1229 1590
1230 1234
1230 1247
1230 1254
1230 1257
1230 1266
1230 1294
1230 1299
1230 1302
1230 1304
1230 1305
1230 1310
1230 1313
1230 1314
1230 1330
1230 1331
1230 1336
1230 1339
1230 1353
1230 1360
1230 1363
1230 1373
1230 1374
1230 1379
1230 1383
1230 1385
1230 1390
1230 1406
1230 1412
1230 1418
1230 1435
1230 1436
1230 1438
1230 1441
1230 1449
1230 1471
1230 1477
1230 1492
1230 1493
1230 1494
1230 1496
1230 1499
1230 1507
1230 1518
1230 1525
1230 1534
1230 1560
1230 1562
1230 1568
1230 1580
1230 1582
1230 1596
1230 1904
1231 1254
1231 1267
1231 1277
1231 1282
1231 1288
1231 1289
1231 1290
1231 1317
1231 1331
1231 1332
1231 1350
1231 1353
1231 1381
1231 1388
1231 1409
1231 1416
1231 1433
1231 1434
1231 1452
1231 1469
1231 1470
1231 1481
1231 1498
1231 1508
1231 1514
1231 1526
1231 1536
1231 1549
1231 1552
1231 1574
1231 1586
1231 1595
1232 1241
1232 1242
1232 1251
1232 1258
1232 1279
1232 1294
1232 1297
1232 1312
1232 1323
1232 1326
1232 1329
1232 1332
1232 1334
1232 1345
1232 1347
1232 1387
1232 1396
1232 1414
1232 1417
1232 1434
1232 1437
1232 1438
1232 1471
1232 1475
1232 1490
1232 1493
1232 1497
1232 1505
1232 1528
1232 1538
1232 1548
1232 1573
1232 1575
1232 1578
1232 1581
1232 1754
1233 1245
1233 1250
1233 1254
1233 1262
1233 1264
1233 1275
1233 1277
1233 1287
1233 1288
1233 1310
1233 1324
1233 1330
1233 1336
1233 1350
1233 1354
1233 1362
1233 1364
1233 1373
1233 1375
1233 1380
1233 1382
1233 1384
1233 1385
1233 1388
1233 1401
1233 1402
1233 1403
1233 1404
1233 1406
1233 1437
1233 1440
1233 1447
1233 1452
1233 1455
1233 1480
1233 1499
1233 1511
1233 1523
1233 1525
1233 1541
1233 1544
1233 1545
1233 1551
1233 1554
1233 1577
1233 1585
1234 1250
1234 1267
1234 1270
1234 1279
1234 1280
1234 1296
1234 1307
1234 1311
1234 1313
1234 1315
1234 1319
1234 1354
1234 1356
1234 1369
1234 1377
1234 1383
1234 1390
1234 1397
1234 1413
1234 1414
1234 1427
1234 1461
1234 1464
1234 1482
1234 1497
1234 1499
1234 1500
1234 1508
1234 1520
1234 1534
1234 1547
1234 1568
1234 1574
1234 1588
1234 1597
1235 1245
1235 1249
1235 1252
1235 1260
1235 1276
1235 1280
1235 1298
1235 1305
1235 1312
1235 1315
1235 1319
1235 1336
1235 1340
1235 1358
1235 1366
1235 1394
1235 1395
1235 1400
1235 1421
1235 1423
1235 1435
1235 1446
1235 1469
1235 1473
1235 1491
1235 1498
1235 1513
1235 1519
1235 1520
1235 1529
1235 1559
1235 1561
1235 1564
1235 1567
1235 1768
1235 1824
1236 1240
1236 1243
1236 1244
1236 1264
1236 1271
1236 1291
1236 1294
1236 1323
1236 1375
1236 1383
1236 1384
1236 1399
1236 1403
1236 1424
1236 1437
1236 1438
1236 1441
1236 1442
1236 1444
1236 1446
1236 1456
1236 1479
1236 1486
1236 1495
1236 1499
1236 1500
1236 1524
1236 1525
1236 1540
1236 1555
1236 1561
1236 1578
1236 1591
1236 1598
1236 1615
1237 1241
1237 1255
1237 1263
1237 1266
1237 1277
1237 1286
1237 1287
1237 1297
1237 1298
1237 1308
1237 1327
1237 1338
1237 1355
1237 1360
1237 1368
1237 1371
1237 1382
1237 1410
1237 1411
1237 1413
1237 1415
1237 1417
1237 1424
1237 1456
1237 1466
1237 1488
1237 1492
1237 1536
1237 1547
1237 1564
1237 1576
1237 1577
1237 1581
1237 1585
1237 1591
1237 1597
1238 1241
1238 1245
1238 1247
1238 1249
1238 1250
1238 1252
1238 1254
1238 1257
1238 1273
1238 1287
1238 1305
1238 1309
1238 1317
1238 1320
1238 1332
1238 1334
1238 1336
1238 1348
1238 1360
1238 1372
1238 1374
1238 1375
1238 1382
1238 1393
1238 1410
1238 1414
1238 1425
1238 1433
1238 1438
1238 1442
1238 1499
1238 1509
1238 1523
1238 1529
1238 1542
1238 1551
1238 1553
1238 1554
1238 1559
1238 1582
1238 1584
1238 1597
1239 1254
1239 1269
1239 1297
1239 1305
1239 1314
1239 1319
1239 1325
1239 1327
1239 1332
1239 1336
1239 1343
1239 1354
1239 1355
1239 1359
1239 1377
1239 1379
1239 1397
1239 1411
1239 1417
1239 1435
1239 1450
1239 1471
1239 1477
1239 1478
1239 1481
1239 1508
1239 1509
1239 1519
1239 1536
1239 1543
1239 1562
1239 1570
1239 1582
1239 1591
1239 1592
1240 1241
1240 1263
1240 1275
1240 1291
1240 1294
1240 1299
1240 1300
1240 1307
1240 1310
1240 1321
1240 1331
1240 1336
1240 1338
1240 1361
1240 1389
1240 1391
1240 1417
1240 1418
1240 1421
1240 1440
1240 1446
1240 1455
1240 1467
1240 1471
1240 1480
1240 1482
1240 1511
1240 1517
1240 1530
1240 1547
1240 1570
1240 1572
1240 1585
1240 1587
1240 1593
1240 1820
1241 1250
1241 1251
1241 1279
1241 1282
1241 1292
1241 1298
1241 1302
1241 1306
1241 1315
1241 1319
1241 1332
1241 1342
1241 1345
1241 1350
1241 1369
1241 1374
1241 1381
1241 1385
1241 1405
1241 1429
1241 1433
1241 1443
1241 1465
1241 1467
1241 1473
1241 1479
1241 1499
1241 1504
1241 1508
1241 1538
1241 1546
1241 1553
1241 1557
1241 1569
1241 1577
1241 1586
1241 1598
1242 1248
1242 1250
1242 1256
1242 1262
1242 1263
1242 1271
1242 1282
1242 1296
1242 1300
1242 1303
1242 1325
1242 1336
1242 1339
1242 1348
1242 1359
1242 1363
1242 1364
1242 1371
1242 1380
1242 1384
1242 1393
1242 1405
1242 1407
1242 1412
1242 1414
1242 1415
1242 1418
1242 1437
1242 1455
1242 1460
1242 1463
1242 1479
1242 1495
1242 1502
1242 1526
1242 1529
1242 1535
1242 1540
1242 1544
1242 1547
1242 1554
1242 1566
1242 1582
1242 1583
1242 1587
1242 1588
1242 1592
1242 1610
1242 1634
1242 1900
1243 1258
1243 1261
1243 1282
1243 1288
1243 1299
1243 1311
1243 1329
1243 1336
1243 1339
1243 1347
1243 1356
1243 1359
1243 1367
1243 1384
1243 1385
1243 1387
1243 1399
1243 1407
1243 1423
1243 1427
1243 1433
1243 1458
1243 1462
1243 1474
1243 1491
1243 1499
1243 1518
1243 1537
1243 1542
1243 1545
1243 1559
1243 1565
1243 1568
1243 1586
1243 1590
1244 1252
1244 1259
1244 1260
1244 1265
1244 1268
1244 1270
1244 1277
1244 1285
1244 1303
1244 1309
1244 1313
1244 1315
1244 1316
1244 1323
1244 1338
1244 1339
1244 1340
1244 1350
1244 1374
1244 1388
1244 1395
1244 1397
1244 1404
1244 1417
1244 1434
1244 1436
1244 1440
1244 1448
1244 1461
1244 1462
1244 1468
1244 1469
1244 1472
1244 1473
1244 1475
1244 1480
1244 1488
1244 1502
1244 1504
1244 1508
1244 1537
1244 1539
1244 1567
1244 1568
1244 1576
1244 1579
1244 1590
1244 1594
1245 1251
1245 1252
1245 1255
1245 1265
1245 1279
1245 1297
1245 1298
1245 1300
1245 1301
1245 1303
1245 1320
1245 1329
1245 1330
1245 1358
1245 1361
1245 1373
1245 1397
1245 1415
1245 1431
1245 1458
1245 1459
1245 1465
1245 1486
1245 1487
1245 1505
1245 1523
1245 1533
1245 1555
1245 1581
1245 1932
1246 1254
1246 1264
1246 1269
1246 1300
1246 1307
1246 1319
1246 1332
1246 1343
1246 1344
1246 1347
1246 1350
1246 1357
1246 1361
1246 1362
1246 1373
1246 1376
1246 1378
1246 1380
1246 1403
1246 1410
1246 1421
1246 1424
1246 1426
1246 1438
1246 1447
1246 1450
1246 1455
1246 1465
1246 1471
1246 1485
1246 1502
1246 1505
1246 1506
1246 1509
1246 1553
1246 1554
1246 1564
1246 1568
1246 1590
1246 1592
1246 1598
1247 1249
1247 1257
1247 1263
1247 1282
1247 1287
1247 1291
1247 1296
1247 1302
1247 1305
1247 1308
1247 1319
1247 1333
1247 1350
1247 1351
1247 1358
1247 1371
1247 1380
1247 1390
1247 1401
1247 1403
1247 1404
1247 1408
1247 1409
1247 1413
1247 1432
1247 1441
1247 1443
1247 1447
1247 1452
1247 1462
1247 1473
1247 1490
1247 1512
1247 1520
1247 1521
1247 1524
1247 1532
1247 1539
1247 1548
1247 1560
1247 1595
1248 1254
1248 1265
1248 1266
1248 1267
1248 1270
1248 1275
1248 1292
1248 1295
1248 1310
1248 1351
1248 1353
1248 1359
1248 1374
1248 1376
1248 1382
1248 1386
1248 1398
1248 1405
1248 1420
1248 1422
1248 1423
1248 1432
1248 1436
1248 1449
1248 1454
1248 1455
1248 1463
1248 1477
1248 1502
1248 1512
1248 1513
1248 1517
1248 1521
1248 1539
1248 1547
1248 1576
1248 1583
1248 1596
1249 1262
1249 1292
1249 1305
1249 1309
1249 1314
1249 1324
1249 1327
1249 1330
1249 1332
1249 1345
1249 1349
1249 1361
1249 1363
1249 1365
1249 1375
1249 1377
1249 1383
1249 1391
1249 1407
1249 1411
1249 1423
1249 1425
1249 1427
1249 1435
1249 1454
1249 1468
1249 1504
1249 1509
1249 1514
1249 1516
1249 1524
1249 1529
1249 1543
1249 1550
1249 1576
1249 1578
1249 1669
1250 1251
1250 1263
1250 1287
1250 1292
1250 1297
1250 1309
1250 1314
1250 1317
1250 1324
1250 1329
1250 1335
1250 1388
1250 1391
1250 1397
1250 1408
1250 1417
1250 1431
1250 1440
1250 1442
1250 1450
1250 1452
1250 1462
1250 1468
1250 1490
1250 1491
1250 1503
1250 1510
1250 1515
1250 1533
1250 1538
1250 1545
1250 1550
1250 1551
1250 1900
1251 1253
1251 1260
1251 1270
1251 1285
1251 1288
1251 1290
1251 1293
1251 1306
1251 1313
1251 1323
1251 1354
1251 1362
1251 1369
1251 1381
1251 1388
1251 1396
1251 1399
1251 1402
1251 1411
1251 1422
1251 1425
1251 1427
1251 1435
1251 1437
1251 1455
1251 1456
1251 1491
1251 1506
1251 1509
1251 1519
1251 1537
1251 1538
1251 1551
1251 1553
1251 1568
1251 1571
1251 1573
1251 1593
1251 1596
1252 1266
1252 1268
1252 1269
1252 1283
1252 1288
1252 1289
1252 1303
1252 1312
1252 1316
1252 1318
1252 1333
1252 1343
1252 1348
1252 1349
1252 1350
1252 1355
1252 1360
1252 1361
1252 1366
1252 1368
1252 1375
1252 1379
1252 1384
1252 1387
1252 1393
1252 1398
1252 1399
1252 1408
1252 1424
1252 1428
1252 1440
1252 1451
1252 1457
1252 1467
1252 1483
1252 1488
1252 1497
1252 1502
1252 1505
1252 1525
1252 1529
1252 1533
1252 1534
1252 1536
1252 1566
1252 1585
1252 1586
1252 1590
1252 1742
1253 1275
1253 1277
1253 1280
1253 1297
1253 1310
1253 1326
1253 1334
1253 1338
1253 1346
1253 1366
1253 1384
1253 1390
1253 1393
1253 1403
1253 1424
1253 1431
1253 1434
1253 1443
1253 1454
1253 1455
1253 1456
1253 1464
1253 1469
1253 1475
1253 1483
1253 1488
1253 1508
1253 1520
1253 1525
1253 1526
1253 1541
1253 1554
1253 1557
1253 1568
1253 1598
1254 1256
1254 1260
1254 1262
1254 1268
1254 1272
1254 1280
1254 1282
1254 1288
1254 1303
1254 1304
1254 1317
1254 1327
1254 1356
1254 1385
1254 1412
1254 1428
1254 1437
1254 1454
1254 1462
1254 1495
1254 1509
1254 1522
1254 1535
1254 1562
1254 1567
1254 1583
1254 1590
1254 1592
1255 1260
1255 1288
1255 1302
1255 1304
1255 1307
1255 1308
1255 1311
1255 1329
1255 1345
1255 1356
1255 1358
1255 1365
1255 1368
1255 1382
1255 1388
1255 1396
1255 1425
1255 1428
1255 1431
1255 1432
1255 1433
1255 1447
1255 1452
1255 1479
1255 1487
1255 1489
1255 1523
1255 1525
1255 1534
1255 1542
1255 1572
1255 1574
1255 1590
1256 1269
1256 1278
1256 1290
1256 1299
1256 1330
1256 1333
1256 1335
1256 1347
1256 1363
1256 1374
1256 1396
1256 1399
1256 1416
1256 1419
1256 1427
1256 1428
1256 1437
1256 1442
1256 1444
1256 1446
1256 1461
1256 1477
1256 1512
1256 1523
1256 1524
1256 1528
1256 1561
1256 1563
1256 1567
1256 1584
1256 1591
1256 1599
1257 1267
1257 1268
1257 1287
1257 1298
1257 1305
1257 1328
1257 1331
1257 1335
1257 1388
1257 1393
1257 1408
1257 1409
1257 1425
1257 1437
1257 1452
1257 1465
1257 1484
1257 1485
1257 1486
1257 1488
1257 1489
1257 1505
1257 1513
1257 1530
1257 1554
1257 1559
1257 1561
1257 1562
1257 1589
1257 1594
1257 1595
1258 1266
1258 1275
1258 1292
1258 1294
1258 1299
1258 1301
1258 1302
1258 1307
1258 1310
1258 1334
1258 1348
1258 1360
1258 1365
1258 1374
1258 1383
1258 1384
1258 1385
1258 1395
1258 1399
1258 1401
1258 1402
1258 1415
1258 1429
1258 1441
1258 1469
1258 1470
1258 1472
1258 1476
1258 1478
1258 1479
1258 1481
1258 1489
1258 1501
1258 1526
1258 1529
1258 1536
1258 1550
1258 1568
1258 1573
1258 1574
1258 1577
1258 1578
1259 1263
1259 1276
1259 1291
1259 1297
1259 1298
1259 1312
1259 1313
1259 1318
1259 1350
1259 1357
1259 1378
1259 1415
1259 1432
1259 1437
1259 1443
1259 1458
1259 1461
1259 1468
1259 1495
1259 1509
1259 1511
1259 1512
1259 1513
1259 1516
1259 1521
1259 1533
1259 1547
1259 1549
1259 1553
1259 1565
1259 1575
1259 1584
1259 1590
1259 1591
1259 1595
1259 1596
1260 1261
1260 1265
1260 1270
1260 1271
1260 1288
1260 1294
1260 1306
1260 1308
1260 1309
1260 1319
1260 1327
1260 1332
1260 1344
1260 1352
1260 1361
1260 1365
1260 1370
1260 1376
1260 1380
1260 1423
1260 1429
1260 1431
1260 1444
1260 1451
1260 1463
1260 1477
1260 1482
1260 1498
1260 1499
1260 1503
1260 1509
1260 1529
1260 1547
1260 1564
1260 1580
1260 1584
1260 1594
1260 1934
1261 1268
1261 1276
1261 1279
1261 1282
1261 1285
1261 1288
1261 1307
1261 1311
1261 1318
1261 1320
1261 1326
1261 1330
1261 1363
1261 1366
1261 1379
1261 1382
1261 1390
1261 1395
1261 1427
1261 1436
1261 1443
1261 1456
1261 1457
1261 1469
1261 1472
1261 1477
1261 1482
1261 1487
1261 1500
1261 1502
1261 1506
1261 1516
1261 1517
1261 1526
1261 1543
1261 1546
1261 1568
1261 1570
1261 1573
1261 1577
1261 1588
1261 1589
1261 1598
1262 1277
1262 1296
1262 1298
1262 1308
1262 1312
1262 1323
1262 1338
1262 1345
1262 1357
1262 1359
1262 1363
1262 1369
1262 1382
1262 1388
1262 1397
1262 1400
1262 1410
1262 1411
1262 1414
1262 1455
1262 1466
1262 1468
1262 1482
1262 1497
1262 1503
1262 1505
1262 1527
1262 1531
1262 1573
1262 1588
1263 1279
1263 1282
1263 1286
1263 1292
1263 1294
1263 1295
1263 1298
1263 1307
1263 1316
1263 1318
1263 1338
1263 1355
1263 1357
1263 1358
1263 1377
1263 1432
1263 1448
1263 1485
1263 1502
1263 1503
1263 1511
1263 1514
1263 1516
1263 1517
1263 1530
1263 1544
1263 1562
1263 1567
1263 1580
1263 1584
1263 1592
1263 1593
1263 1598
1263 1881
1264 1266
1264 1279
1264 1282
1264 1298
1264 1300
1264 1305
1264 1308
1264 1319
1264 1320
1264 1324
1264 1333
1264 1344
1264 1347
1264 1351
1264 1366
1264 1372
1264 1377
1264 1379
1264 1387
1264 1431
1264 1437
1264 1460
1264 1474
1264 1482
1264 1489
1264 1496
1264 1507
1264 1509
1264 1520
1264 1523
1264 1535
1264 1558
1264 1559
1264 1561
1264 1565
1264 1571
1264 1587
1264 1596
1265 1266
1265 1269
1265 1284
1265 1285
1265 1289
1265 1294
1265 1301
1265 1307
1265 1322
1265 1325
1265 1331
1265 1344
1265 1346
1265 1356
1265 1370
1265 1373
1265 1380
1265 1388
1265 1389
1265 1393
1265 1395
1265 1407
1265 1418
1265 1429
1265 1457
1265 1465
1265 1483
1265 1489
1265 1493
1265 1496
1265 1519
1265 1527
1265 1528
1265 1531
1265 1536
1265 1537
1265 1542
1265 1551
1265 1552
1265 1577
1265 1594
1266 1269
1266 1273
1266 1294
1266 1304
1266 1308
1266 1313
1266 1321
1266 1323
1266 1334
1266 1335
1266 1337
1266 1362
1266 1365
1266 1384
1266 1390
1266 1409
1266 1415
1266 1417
1266 1424
1266 1427
1266 1439
1266 1462
1266 1473
1266 1489
1266 1494
1266 1502
1266 1558
1266 1563
1266 1566
1266 1572
1266 1585
1266 1591
1267 1270
1267 1273
1267 1275
1267 1289
1267 1311
1267 1317
1267 1339
1267 1342
1267 1353
1267 1364
1267 1366
1267 1369
1267 1383
1267 1405
1267 1409
1267 1410
1267 1453
1267 1458
1267 1461
1267 1471
1267 1478
1267 1492
1267 1521
1267 1532
1267 1540
1267 1553
1267 1562
1267 1577
1267 1580
1267 1584
1267 1586
1267 1594
1268 1280
1268 1283
1268 1320
1268 1323
1268 1344
1268 1345
1268 1349
1268 1353
1268 1357
1268 1362
1268 1373
1268 1387
1268 1388
1268 1409
1268 1437
1268 1442
1268 1470
1268 1474
1268 1480
1268 1492
1268 1508
1268 1512
1268 1514
1268 1516
1268 1517
1268 1518
1268 1532
1268 1534
1268 1555
1268 1559
1268 1566
1268 1567
1268 1568
1268 1577
1268 1628
1269 1272
1269 1281
1269 1288
1269 1295
1269 1339
1269 1350
1269 1367
1269 1368
1269 1372
1269 1387
1269 1397
1269 1407
1269 1411
1269 1430
1269 1469
1269 1479
1269 1480
1269 1481
1269 1486
1269 1488
1269 1505
1269 1509
1269 1514
1269 1525
1269 1529
1269 1541
1269 1548
1269 1551
1269 1568
1269 1596
1269 1727
1270 1272
1270 1286
1270 1295
1270 1300
1270 1304
1270 1306
1270 1320
1270 1329
1270 1333
1270 1357
1270 1373
1270 1379
1270 1389
1270 1393
1270 1426
1270 1445
1270 1450
1270 1451
1270 1456
1270 1472
1270 1476
1270 1482
1270 1490
1270 1492
1270 1496
1270 1506
1270 1513
1270 1525
1270 1546
1270 1548
1270 1552
1270 1556
1270 1569
1270 1576
1270 1586
1271 1275
1271 1280
1271 1282
1271 1289
1271 1291
1271 1294
1271 1295
1271 1305
1271 1308
1271 1318
1271 1325
1271 1349
1271 1354
1271 1357
1271 1363
1271 1365
1271 1370
1271 1391
1271 1395
1271 1416
1271 1420
1271 1421
1271 1425
1271 1427
1271 1435
1271 1449
1271 1455
1271 1516
1271 1519
1271 1527
1271 1528
1271 1532
1271 1540
1271 1549
1271 1560
1271 1575
1271 1580
1271 1588
1271 1589
1272 1285
1272 1286
1272 1289
1272 1301
1272 1340
1272 1349
1272 1352
1272 1353
1272 1362
1272 1378
1272 1381
1272 1383
1272 1394
1272 1405
1272 1408
1272 1409
1272 1427
1272 1450
1272 1455
1272 1461
1272 1468
1272 1476
1272 1485
1272 1486
1272 1491
1272 1497
1272 1498
1272 1508
1272 1520
1272 1525
1272 1526
1272 1527
1272 1540
1272 1541
1272 1571
1272 1586
1272 1588
1272 1597
1272 1599
1273 1287
1273 1302
1273 1322
1273 1326
1273 1329
1273 1355
1273 1370
1273 1408
1273 1435
1273 1443
1273 1444
1273 1450
1273 1465
1273 1470
1273 1479
1273 1499
1273 1512
1273 1535
1273 1537
1273 1538
1273 1540
1273 1542
1273 1548
1273 1553
1273 1579
1273 1581
1273 1588
1273 1591
1273 1592
1274 1279
1274 1280
1274 1290
1274 1292
1274 1297
1274 1299
1274 1345
1274 1348
1274 1359
1274 1387
1274 1408
1274 1420
1274 1433
1274 1434
1274 1440
1274 1465
1274 1476
1274 1479
1274 1482
1274 1484
1274 1500
1274 1508
1274 1512
1274 1520
1274 1532
1274 1533
1274 1549
1274 1550
1274 1574
1274 1578
1274 1586
1275 1285
1275 1302
1275 1305
1275 1315
1275 1317
1275 1343
1275 1344
1275 1353
1275 1377
1275 1407
1275 1414
1275 1421
1275 1423
1275 1449
1275 1484
1275 1487
1275 1493
1275 1517
1275 1544
1275 1578
1275 1587
1275 1588
1275 1791
1276 1278
1276 1290
1276 1291
1276 1292
1276 1300
1276 1304
1276 1309
1276 1327
1276 1346
1276 1351
1276 1357
1276 1366
1276 1387
1276 1388
1276 1389
1276 1392
1276 1393
1276 1394
1276 1404
1276 1405
1276 1407
1276 1411
1276 1414
1276 1418
1276 1420
1276 1439
1276 1444
1276 1452
1276 1453
1276 1484
1276 1496
1276 1501
1276 1507
1276 1524
1276 1526
1276 1546
1276 1547
1276 1553
1276 1562
1276 1567
1276 1575
1276 1576
1276 1578
1276 1582
1277 1283
1277 1298
1277 1307
1277 1310
1277 1311
1277 1316
1277 1320
1277 1336
1277 1348
1277 1373
1277 1386
1277 1389
1277 1396
1277 1407
1277 1415
1277 1425
1277 1426
1277 1432
1277 1440
1277 1462
1277 1479
1277 1482
1277 1514
1277 1519
1277 1535
1277 1538
1277 1551
1277 1553
1277 1557
1277 1560
1277 1585
1277 1591
1278 1282
1278 1285
1278 1348
1278 1357
1278 1376
1278 1381
1278 1394
1278 1412
1278 1413
1278 1417
1278 1426
1278 1428
1278 1439
1278 1442
1278 1448
1278 1465
1278 1483
1278 1486
1278 1487
1278 1489
1278 1491
1278 1494
1278 1501
1278 1503
1278 1515
1278 1530
1278 1535
1278 1552
1278 1571
1278 1585
1278 1588
1278 1590
1278 1594
1278 1595
1278 1599
1279 1300
1279 1301
1279 1313
1279 1319
1279 1321
1279 1326
1279 1331
1279 1347
1279 1354
1279 1355
1279 1357
1279 1371
1279 1381
1279 1386
1279 1401
1279 1410
1279 1411
1279 1412
1279 1414
1279 1421
1279 1423
1279 1441
1279 1452
1279 1479
1279 1537
1279 1557
1279 1565
1279 1568
1279 1585
1279 1594
1279 1595
1279 1647
1280 1288
1280 1303
1280 1304
1280 1328
1280 1341
1280 1342
1280 1348
1280 1352
1280 1356
1280 1371
1280 1379
1280 1395
1280 1411
1280 1423
1280 1429
1280 1433
1280 1434
1280 1437
1280 1440
1280 1443
1280 1487
1280 1492
1280 1507
1280 1512
1280 1519
1280 1520
1280 1521
1280 1527
1280 1530
1280 1547
1280 1558
1280 1559
1280 1567
1280 1568
1280 1590
1280 1592
1280 1598
1280 1599
1280 1707
1281 1294
1281 1301
1281 1331
1281 1332
1281 1343
1281 1356
1281 1359
1281 1361
1281 1366
1281 1381
1281 1388
1281 1391
1281 1394
1281 1405
1281 1413
1281 1424
1281 1439
1281 1441
1281 1451
1281 1467
1281 1472
1281 1494
1281 1496
1281 1507
1281 1508
1281 1509
1281 1510
1281 1511
1281 1514
1281 1516
1281 1520
1281 1527
1281 1577
1281 1581
1281 1584
1281 1594
1281 1599
1282 1305
1282 1308
1282 1321
1282 1339
1282 1344
1282 1346
1282 1359
1282 1364
1282 1366
1282 1374
1282 1396
1282 1397
1282 1405
1282 1420
1282 1423
1282 1429
1282 1448
1282 1449
1282 1463
1282 1471
1282 1488
1282 1489
1282 1503
1282 1522
1282 1530
1282 1552
1282 1558
1282 1559
1282 1565
1282 1567
1282 1569
1282 1591
1282 1595
1283 1287
1283 1293
1283 1300
1283 1322
1283 1335
1283 1339
1283 1346
1283 1350
1283 1354
1283 1358
1283 1368
1283 1369
1283 1388
1283 1394
1283 1398
1283 1401
1283 1416
1283 1430
1283 1436
1283 1440
1283 1441
1283 1444
1283 1456
1283 1459
1283 1483
1283 1492
1283 1498
1283 1506
1283 1515
1283 1523
1283 1541
1283 1544
1283 1553
1283 1571
1283 1572
1283 1582
1283 1843
1284 1300
1284 1303
1284 1306
1284 1311
1284 1333
1284 1353
1284 1355
1284 1378
1284 1391
1284 1399
1284 1406
1284 1407
1284 1410
1284 1414
1284 1422
1284 1447
1284 1454
1284 1455
1284 1457
1284 1459
1284 1470
1284 1507
1284 1533
1284 1540
1284 1542
1284 1544
1284 1558
1284 1564
1284 1582
1284 1596
1284 1599
1284 1620
1284 1800
1285 1299
1285 1335
1285 1350
1285 1353
1285 1438
1285 1457
1285 1469
1285 1481
1285 1495
1285 1497
1285 1498
1285 1499
1285 1501
1285 1516
1285 1533
1285 1537
1285 1541
1285 1560
1285 1579
1285 1581
1285 1589
1286 1294
1286 1315
1286 1326
1286 1331
1286 1332
1286 1333
1286 1339
1286 1342
1286 1358
1286 1386
1286 1390
1286 1396
1286 1406
1286 1428
1286 1437
1286 1439
1286 1446
1286 1447
1286 1448
1286 1453
1286 1456
1286 1461
1286 1464
1286 1471
1286 1475
1286 1483
1286 1485
1286 1491
1286 1500
1286 1501
1286 1529
1286 1543
1286 1545
1286 1552
1286 1578
1286 1597
1286 1624
1287 1301
1287 1316
1287 1318
1287 1325
1287 1327
1287 1366
1287 1375
1287 1423
1287 1434
1287 1436
1287 1440
1287 1445
1287 1493
1287 1494
1287 1511
1287 1512
1287 1525
1287 1534
1287 1540
1287 1555
1287 1565
1287 1576
1287 1582
1287 1596
1287 1599
1288 1319
1288 1327
1288 1331
1288 1332
1288 1339
1288 1363
1288 1368
1288 1369
1288 1373
1288 1397
1288 1399
1288 1409
1288 1418
1288 1424
1288 1434
1288 1440
1288 1441
1288 1458
1288 1459
1288 1480
1288 1488
1288 1494
1288 1505
1288 1508
1288 1515
1288 1517
1288 1520
1288 1531
1288 1587
1288 1596
1289 1295
1289 1301
1289 1306
1289 1315
1289 1331
1289 1405
1289 1410
1289 1412
1289 1417
1289 1425
1289 1429
1289 1439
1289 1443
1289 1475
1289 1486
1289 1498
1289 1505
1289 1518
1289 1519
1289 1522
1289 1524
1289 1539
1289 1540
1289 1556
1289 1568
1289 1579
1289 1587
1290 1299
1290 1316
1290 1322
1290 1333
1290 1338
1290 1348
1290 1354
1290 1363
1290 1364
1290 1365
1290 1383
1290 1400
1290 1417
1290 1425
1290 1433
1290 1441
1290 1443
1290 1450
1290 1452
1290 1474
1290 1479
1290 1494
1290 1505
1290 1508
1290 1511
1290 1520
1290 1524
1290 1525
1290 1531
1290 1534
1290 1536
1290 1563
1290 1567
1290 1588
1290 1892
1291 1294
1291 1325
1291 1326
1291 1332
1291 1333
1291 1341
1291 1352
1291 1362
1291 1376
1291 1379
1291 1380
1291 1382
1291 1385
1291 1386
1291 1388
1291 1391
1291 1392
1291 1401
1291 1411
1291 1412
1291 1424
1291 1439
1291 1475
1291 1485
1291 1490
1291 1502
1291 1503
1291 1504
1291 1512
1291 1549
1291 1579
1291 1583
1292 1300
1292 1311
1292 1337
1292 1341
1292 1343
1292 1374
1292 1381
1292 1386
1292 1387
1292 1388
1292 1391
1292 1401
1292 1413
1292 1418
1292 1421
1292 1428
1292 1435
1292 1446
1292 1462
1292 1464
1292 1465
1292 1469
1292 1477
1292 1489
1292 1495
1292 1516
1292 1519
1292 1528
1292 1529
1292 1555
1292 1563
1292 1565
1292 1583
1292 1751
1293 1294
1293 1323
1293 1336
1293 1342
1293 1359
1293 1384
1293 1385
1293 1398
1293 1418
1293 1422
1293 1423
1293 1427
1293 1431
1293 1432
1293 1438
1293 1457
1293 1462
1293 1465
1293 1516
1293 1521
1293 1535
1293 1541
1293 1568
1293 1569
1293 1578
1293 1705
1294 1300
1294 1301
1294 1320
1294 1328
1294 1340
1294 1344
1294 1352
1294 1356
1294 1370
1294 1374
1294 1388
1294 1389
1294 1393
1294 1413
1294 1416
1294 1429
1294 1434
1294 1443
1294 1444
1294 1458
1294 1471
1294 1484
1294 1488
1294 1498
1294 1501
1294 1502
1294 1509
1294 1514
1294 1533
1294 1535
1294 1551
1294 1555
1294 1559
1294 1581
1294 1583
1294 1588
1295 1303
1295 1319
1295 1336
1295 1362
1295 1367
1295 1391
1295 1393
1295 1409
1295 1419
1295 1423
1295 1453
1295 1454
1295 1483
1295 1493
1295 1495
1295 1512
1295 1513
1295 1518
1295 1521
1295 1586
1296 1301
1296 1307
1296 1309
1296 1326
1296 1347
1296 1352
1296 1371
1296 1400
1296 1401
1296 1413
1296 1428
1296 1429
1296 1433
1296 1447
1296 1467
1296 1481
1296 1495
1296 1505
1296 1511
1296 1539
1296 1547
1296 1569
1296 1587
1296 1589
1296 1593
1297 1304
1297 1305
1297 1311
1297 1313
1297 1314
1297 1321
1297 1322
1297 1335
1297 1348
1297 1366
1297 1386
1297 1397
1297 1434
1297 1442
1297 1460
1297 1462
1297 1465
1297 1471
1297 1501
1297 1507
1297 1511
1297 1515
1297 1517
1297 1523
1297 1531
1297 1564
1297 1569
1297 1570
1297 1571
1297 1574
1297 1593
1297 1599
1298 1301
1298 1311
1298 1319
1298 1332
1298 1338
1298 1349
1298 1353
1298 1361
1298 1380
1298 1383
1298 1393
1298 1408
1298 1413
1298 1428
1298 1441
1298 1453
1298 1469
1298 1472
1298 1489
1298 1507
1298 1527
1298 1528
1298 1540
1298 1546
1298 1595
1299 1300
1299 1329
1299 1337
1299 1344
1299 1353
1299 1371
1299 1374
1299 1377
1299 1381
1299 1399
1299 1400
1299 1406
1299 1422
1299 1427
1299 1428
1299 1430
1299 1431
1299 1446
1299 1471
1299 1487
1299 1493
1299 1539
1299 1542
1299 1544
1299 1546
1299 1565
1299 1575
1299 1582
1299 1583
1299 1953
1300 1304
1300 1310
1300 1315
1300 1318
1300 1328
1300 1342
1300 1351
1300 1368
1300 1374
1300 1375
1300 1380
1300 1381
1300 1382
1300 1384
1300 1424
1300 1428
1300 1448
1300 1479
1300 1480
1300 1488
1300 1516
1300 1526
1300 1527
1300 1540
1300 1561
1300 1565
1300 1582
1300 1583
1300 1593
1300 1596
1300 1777
1301 1312
1301 1324
1301 1327
1301 1353
1301 1363
1301 1365
1301 1410
1301 1418
1301 1420
1301 1429
1301 1441
1301 1447
1301 1466
1301 1467
1301 1469
1301 1475
1301 1476
1301 1495
1301 1510
1301 1512
1301 1520
1301 1524
1301 1528
1301 1531
1301 1533
1301 1549
1301 1551
1301 1552
1301 1568
1301 1570
1301 1577
1301 1592
1301 1596
1301 1599
1302 1335
1302 1338
1302 1349
1302 1354
1302 1359
1302 1372
1302 1374
1302 1379
1302 1394
1302 1398
1302 1408
1302 1421
1302 1434
1302 1447
1302 1459
1302 1464
1302 1467
1302 1490
1302 1495
1302 1520
1302 1525
1302 1530
1302 1532
1302 1535
1302 1549
1302 1559
1302 1565
1302 1576
1302 1580
1302 1597
1302 1714
1302 1804
1303 1309
1303 1317
1303 1328
1303 1334
1303 1364
1303 1370
1303 1386
1303 1394
1303 1403
1303 1404
1303 1405
1303 1487
1303 1488
1303 1496
1303 1507
1303 1512
1303 1528
1303 1530
1303 1542
1303 1598
1304 1323
1304 1327
1304 1331
1304 1352
1304 1353
1304 1359
1304 1362
1304 1364
1304 1418
1304 1449
1304 1451
1304 1452
1304 1463
1304 1469
1304 1475
1304 1483
1304 1492
1304 1497
1304 1505
1304 1528
1304 1534
1304 1535
1304 1548
1304 1559
1304 1568
1304 1579
1304 1582
1304 1830
1305 1313
1305 1342
1305 1351
1305 1354
1305 1371
1305 1375
1305 1399
1305 1405
1305 1407
1305 1415
1305 1423
1305 1428
1305 1430
1305 1448
1305 1457
1305 1459
1305 1470
1305 1491
1305 1499
1305 1545
1305 1547
1305 1554
1305 1565
1305 1570
1305 1571
1305 1585
1305 1590
1305 1913
1306 1313
1306 1315
1306 1322
1306 1332
1306 1336
1306 1345
1306 1373
1306 1402
1306 1406
1306 1410
1306 1420
1306 1422
1306 1426
1306 1447
1306 1485
1306 1490
1306 1517
1306 1520
1306 1530
1306 1537
1306 1539
1306 1542
1306 1554
1306 1561
1306 1570
1306 1584
1306 1864
1307 1319
1307 1324
1307 1346
1307 1353
1307 1363
1307 1372
1307 1376
1307 1393
1307 1394
1307 1402
1307 1418
1307 1447
1307 1458
1307 1462
1307 1481
1307 1484
1307 1493
1307 1499
1307 1502
1307 1504
1307 1509
1307 1517
1307 1541
1307 1550
1307 1551
1307 1558
1307 1582
1308 1312
1308 1316
1308 1339
1308 1343
1308 1353
1308 1365
1308 1406
1308 1408
1308 1409
1308 1420
1308 1435
1308 1444
1308 1461
1308 1465
1308 1468
1308 1477
1308 1482
1308 1513
1308 1518
1308 1544
1308 1556
1308 1562
1308 1563
1308 1567
1308 1570
1308 1576
1308 1580
1308 1587
1308 1590
1308 1594
1308 1803
1308 1886
1309 1322
1309 1347
1309 1348
1309 1351
1309 1356
1309 1358
1309 1369
1309 1384
1309 1395
1309 1418
1309 1421
1309 1422
1309 1423
1309 1427
1309 1447
1309 1449
1309 1453
1309 1454
1309 1462
1309 1463
1309 1464
1309 1479
1309 1488
1309 1489
1309 1514
1309 1523
1309 1525
1309 1533
1309 1543
1309 1547
1309 1562
1309 1566
1309 1584
1309 1588
1309 1599
1309 1611
1310 1311
1310 1316
1310 1326
1310 1347
1310 1361
1310 1362
1310 1394
1310 1403
1310 1413
1310 1420
1310 1422
1310 1423
1310 1428
1310 1434
1310 1463
1310 1465
1310 1470
1310 1498
1310 1510
1310 1519
1310 1526
1310 1539
1310 1544
1310 1562
1310 1570
1310 1578
1310 1590
1310 1826
1311 1317
1311 1329
1311 1333
1311 1334
1311 1338
1311 1346
1311 1357
1311 1364
1311 1385
1311 1413
1311 1420
1311 1424
1311 1438
1311 1446
1311 1451
1311 1452
1311 1455
1311 1462
1311 1486
1311 1491
1311 1509
1311 1510
1311 1518
1311 1523
1311 1533
1311 1539
1311 1545
1311 1558
1311 1571
1311 1577
1311 1584
1311 1595
1311 1599
1312 1313
1312 1327
1312 1331
1312 1354
1312 1367
1312 1398
1312 1425
1312 1449
1312 1450
1312 1468
1312 1485
1312 1520
1312 1536
1312 1555
1312 1557
1312 1560
1312 1567
1312 1573
1312 1577
1312 1594
1313 1343
1313 1349
1313 1351
1313 1355
1313 1359
1313 1364
1313 1368
1313 1377
1313 1380
1313 1383
1313 1390
1313 1396
1313 1405
1313 1419
1313 1422
1313 1423
1313 1431
1313 1432
1313 1434
1313 1442
1313 1469
1313 1474
1313 1481
1313 1505
1313 1508
1313 1518
1313 1522
1313 1523
1313 1533
1313 1536
1313 1540
1313 1549
1313 1561
1313 1568
1313 1574
1313 1583
1313 1597
1313 1778
1313 1861
1314 1327
1314 1337
1314 1349
1314 1365
1314 1370
1314 1383
1314 1397
1314 1402
1314 1406
1314 1432
1314 1433
1314 1435
1314 1448
1314 1454
1314 1469
1314 1489
1314 1498
1314 1512
1314 1518
1314 1519
1314 1524
1314 1529
1314 1531
1314 1536
1314 1537
1314 1542
1314 1543
1314 1547
1314 1562
1314 1572
1314 1578
1314 1579
1315 1317
1315 1318
1315 1332
1315 1342
1315 1353
1315 1354
1315 1355
1315 1361
1315 1365
1315 1367
1315 1386
1315 1387
1315 1396
1315 1397
1315 1402
1315 1448
1315 1458
1315 1465
1315 1470
1315 1481
1315 1505
1315 1510
1315 1514
1315 1517
1315 1525
1315 1532
1315 1547
1315 1557
1315 1564
1315 1572
1315 1579
1316 1319
1316 1339
1316 1342
1316 1350
1316 1353
1316 1355
1316 1361
1316 1373
1316 1377
1316 1387
1316 1389
1316 1394
1316 1399
1316 1401
1316 1414
1316 1446
1316 1462
1316 1469
1316 1483
1316 1491
1316 1495
1316 1511
1316 1524
1316 1569
1316 1576
1316 1582
1316 1587
1316 1594
1317 1319
1317 1330
1317 1334
1317 1346
1317 1351
1317 1362
1317 1378
1317 1386
1317 1398
1317 1413
1317 1420
1317 1423
1317 1426
1317 1431
1317 1436
1317 1452
1317 1468
1317 1473
1317 1476
1317 1488
1317 1510
1317 1515
1317 1518
1317 1522
1317 1524
1317 1532
1317 1534
1317 1537
1317 1547
1317 1579
1317 1582
1318 1319
1318 1335
1318 1343
1318 1389
1318 1403
1318 1404
1318 1411
1318 1414
1318 1433
1318 1435
1318 1461
1318 1491
1318 1502
1318 1518
1318 1520
1318 1534
1318 1548
1318 1561
1318 1571
1318 1573
1318 1575
1318 1589
1318 1598
1318 1918
1319 1325
1319 1335
1319 1336
1319 1342
1319 1347
1319 1348
1319 1349
1319 1353
1319 1363
1319 1368
1319 1371
1319 1410
1319 1413
1319 1418
1319 1419
1319 1420
1319 1462
1319 1466
1319 1478
1319 1482
1319 1483
1319 1488
1319 1500
1319 1501
1319 1502
1319 1503
1319 1522
1319 1525
1319 1533
1319 1535
1319 1560
1319 1571
1319 1581
1319 1587
1319 1589
1320 1321
1320 1325
1320 1338
1320 1347
1320 1351
1320 1365
1320 1367
1320 1376
1320 1386
1320 1396
1320 1398
1320 1416
1320 1439
1320 1444
1320 1454
1320 1470
1320 1478
1320 1482
1320 1492
1320 1499
1320 1501
1320 1503
1320 1507
1320 1508
1320 1513
1320 1520
1320 1542
1320 1557
1320 1565
1320 1567
1320 1574
1320 1583
1320 1584
1320 1585
1321 1340
1321 1350
1321 1356
1321 1361
1321 1367
1321 1369
1321 1370
1321 1373
1321 1382
1321 1393
1321 1396
1321 1417
1321 1419
1321 1423
1321 1425
1321 1428
1321 1431
1321 1440
1321 1452
1321 1476
1321 1478
1321 1487
1321 1503
1321 1520
1321 1522
1321 1540
1321 1542
1321 1547
1321 1556
1321 1563
1321 1565
1321 1571
1321 1572
1321 1573
1321 1576
1321 1578
1321 1587
1321 1588
1321 1598
1321 1690
1322 1324
1322 1338
1322 1339
1322 1344
1322 1347
1322 1350
1322 1360
1322 1377
1322 1386
1322 1405
1322 1406
1322 1410
1322 1413
1322 1439
1322 1457
1322 1463
1322 1466
1322 1484
1322 1502
1322 1503
1322 1514
1322 1515
1322 1523
1322 1556
1322 1557
1322 1563
1322 1599
1323 1338
1323 1345
1323 1358
1323 1372
1323 1383
1323 1405
1323 1414
1323 1448
1323 1450
1323 1462
1323 1483
1323 1487
1323 1488
1323 1531
1323 1532
1323 1545
1323 1548
1323 1555
1323 1556
1323 1566
1323 1574
1323 1582
1323 1595
1324 1334
1324 1348
1324 1349
1324 1351
1324 1371
1324 1376
1324 1384
1324 1408
1324 1412
1324 1445
1324 1447
1324 1464
1324 1479
1324 1483
1324 1484
1324 1485
1324 1489
1324 1509
1324 1516
1324 1519
1324 1522
1324 1538
1324 1543
1324 1547
1324 1551
1324 1564
1324 1582
1324 1586
1324 1587
1324 1592
1325 1338
1325 1343
1325 1345
1325 1352
1325 1356
1325 1362
1325 1364
1325 1370
1325 1384
1325 1389
1325 1405
1325 1406
1325 1413
1325 1414
1325 1415
1325 1428
1325 1441
1325 1454
1325 1485
1325 1489
1325 1521
1325 1531
1325 1535
1325 1555
1325 1559
1325 1572
1325 1578
1326 1327
1326 1331
1326 1332
1326 1333
1326 1343
1326 1357
1326 1360
1326 1382
1326 1387
1326 1395
1326 1398
1326 1403
1326 1408
1326 1423
1326 1424
1326 1432
1326 1442
1326 1480
1326 1485
1326 1494
1326 1503
1326 1504
1326 1509
1326 1510
1326 1522
1326 1576
1326 1588
1326 1590
1326 1595
1326 1597
1326 1598
1327 1334
1327 1366
1327 1378
1327 1380
1327 1395
1327 1396
1327 1397
1327 1399
1327 1410
1327 1414
1327 1458
1327 1503
1327 1506
1327 1515
1327 1517
1327 1523
1327 1536
1327 1539
1327 1553
1327 1572
1327 1574
1327 1582
1327 1588
1328 1329
1328 1355
1328 1371
1328 1380
1328 1417
1328 1419
1328 1425
1328 1446
1328 1451
1328 1459
1328 1475
1328 1477
1328 1480
1328 1489
1328 1490
1328 1491
1328 1495
1328 1498
1328 1499
1328 1508
1328 1524
1328 1539
1328 1543
1328 1554
1328 1582
1328 1588
1328 1597
1329 1330
1329 1337
1329 1350
1329 1363
1329 1385
1329 1389
1329 1393
1329 1400
1329 1413
1329 1418
1329 1420
1329 1424
1329 1440
1329 1450
1329 1452
1329 1458
1329 1461
1329 1482
1329 1483
1329 1485
1329 1492
1329 1497
1329 1526
1329 1534
1329 1535
1329 1549
1329 1562
1329 1563
1329 1568
1329 1577
1329 1579
1329 1580
1329 1590
1329 1596
1330 1332
1330 1335
1330 1340
1330 1372
1330 1378
1330 1388
1330 1402
1330 1408
1330 1428
1330 1431
1330 1432
1330 1443
1330 1445
1330 1453
1330 1510
1330 1512
1330 1529
1330 1533
1330 1539
1330 1544
1330 1550
1330 1561
1330 1572
1330 1585
1330 1590
1330 1986
1331 1337
1331 1348
1331 1351
1331 1363
1331 1364
1331 1391
1331 1398
1331 1401
1331 1403
1331 1412
1331 1425
1331 1431
1331 1434
1331 1435
1331 1449
1331 1450
1331 1464
1331 1473
1331 1474
1331 1488
1331 1489
1331 1498
1331 1511
1331 1514
1331 1516
1331 1518
1331 1536
1331 1545
1331 1546
1331 1549
1331 1558
1331 1571
1331 1592
1332 1346
1332 1352
1332 1353
1332 1364
1332 1366
1332 1368
1332 1370
1332 1374
1332 1382
1332 1386
1332 1391
1332 1392
1332 1402
1332 1411
1332 1434
1332 1446
1332 1449
1332 1470
1332 1480
1332 1485
1332 1507
1332 1513
1332 1517
1332 1521
1332 1522
1332 1550
1332 1557
1332 1560
1332 1572
1332 1576
1332 1583
1332 1587
1332 1592
1332 1597
1333 1336
1333 1338
1333 1340
1333 1355
1333 1362
1333 1367
1333 1370
1333 1383
1333 1390
1333 1402
1333 1433
1333 1434
1333 1451
1333 1458
1333 1495
1333 1502
1333 1509
1333 1511
1333 1524
1333 1528
1333 1532
1333 1539
1333 1541
1333 1543
1333 1548
1333 1555
1333 1556
1333 1562
1333 1573
1333 1574
1333 1579
1333 1583
1333 1585
1333 1587
1333 1599
1334 1342
1334 1343
1334 1351
1334 1386
1334 1399
1334 1402
1334 1413
1334 1415
1334 1432
1334 1433
1334 1438
1334 1449
1334 1452
1334 1496
1334 1505
1334 1517
1334 1518
1334 1529
1334 1536
1334 1546
1334 1567
1334 1586
1334 1597
1335 1346
1335 1350
1335 1356
1335 1363
1335 1364
1335 1372
1335 1375
1335 1380
1335 1385
1335 1389
1335 1390
1335 1396
1335 1427
1335 1430
1335 1439
1335 1442
1335 1478
1335 1487
1335 1514
1335 1526
1335 1545
1335 1547
1335 1558
1335 1563
1335 1571
1335 1575
1335 1582
1336 1340
1336 1347
1336 1352
1336 1371
1336 1373
1336 1374
1336 1389
1336 1395
1336 1397
1336 1407
1336 1443
1336 1445
1336 1453
1336 1492
1336 1497
1336 1510
1336 1520
1336 1527
1336 1539
1336 1558
1336 1562
1336 1587
1336 1590
1336 1592
1336 1596
1336 1729
1336 1936
1337 1341
1337 1362
1337 1374
1337 1378
1337 1379
1337 1404
1337 1420
1337 1423
1337 1433
1337 1455
1337 1456
1337 1457
1337 1460
1337 1474
1337 1485
1337 1499
1337 1501
1337 1514
1337 1516
1337 1545
1337 1553
1337 1554
1337 1586
1337 1587
1337 1596
1337 1610
1337 1710
1338 1358
1338 1373
1338 1380
1338 1400
1338 1416
1338 1419
1338 1443
1338 1445
1338 1468
1338 1472
1338 1474
1338 1512
1338 1514
1338 1520
1338 1533
1338 1535
1338 1544
1338 1548
1338 1549
1338 1557
1338 1559
1338 1573
1338 1574
1338 1581
1338 1588
1338 1591
1338 1592
1338 1593
1338 1595
1338 1598
1338 1690
1339 1347
1339 1366
1339 1387
1339 1403
1339 1406
1339 1421
1339 1422
1339 1428
1339 1432
1339 1457
1339 1477
1339 1482
1339 1483
1339 1499
1339 1510
1339 1517
1339 1534
1339 1553
1339 1568
1339 1578
1339 1584
1339 1596
1340 1368
1340 1387
1340 1422
1340 1424
1340 1434
1340 1441
1340 1448
1340 1503
1340 1513
1340 1518
1340 1520
1340 1530
1340 1553
1340 1563
1340 1583
1340 1591
1341 1344
1341 1350
1341 1355
1341 1366
1341 1373
1341 1375
1341 1380
1341 1381
1341 1384
1341 1390
1341 1397
1341 1399
1341 1400
1341 1405
1341 1408
1341 1428
1341 1434
1341 1440
1341 1453
1341 1486
1341 1490
1341 1491
1341 1492
1341 1496
1341 1501
1341 1503
1341 1511
1341 1524
1341 1544
1341 1568
1341 1571
1341 1580
1341 1582
1341 1595
1341 1979
1342 1350
1342 1351
1342 1374
1342 1375
1342 1379
1342 1401
1342 1417
1342 1419
1342 1423
1342 1450
1342 1451
1342 1462
1342 1470
1342 1479
1342 1483
1342 1484
1342 1485
1342 1494
1342 1496
1342 1501
1342 1502
1342 1504
1342 1507
1342 1511
1342 1523
1342 1531
1342 1538
1342 1539
1342 1542
1342 1548
1342 1551
1342 1561
1342 1567
1342 1582
1342 1588
1342 1592
1342 1618
1343 1361
1343 1381
1343 1384
1343 1392
1343 1394
1343 1408
1343 1412
1343 1428
1343 1447
1343 1449
1343 1452
1343 1496
1343 1499
1343 1500
1343 1514
1343 1515
1343 1519
1343 1523
1343 1548
1343 1558
1343 1567
1343 1570
1343 1584
1343 1593
1344 1353
1344 1360
1344 1361
1344 1365
1344 1378
1344 1384
1344 1389
1344 1395
1344 1406
1344 1420
1344 1421
1344 1428
1344 1435
1344 1440
1344 1441
1344 1446
1344 1451
1344 1455
1344 1472
1344 1496
1344 1497
1344 1502
1344 1508
1344 1529
1344 1533
1344 1542
1344 1551
1344 1555
1344 1559
1345 1376
1345 1377
1345 1390
1345 1410
1345 1432
1345 1434
1345 1437
1345 1450
1345 1452
1345 1470
1345 1482
1345 1484
1345 1494
1345 1505
1345 1510
1345 1515
1345 1516
1345 1524
1345 1566
1345 1580
1346 1351
1346 1409
1346 1427
1346 1428
1346 1441
1346 1462
1346 1469
1346 1482
1346 1483
1346 1495
1346 1496
1346 1515
1346 1516
1346 1518
1346 1530
1346 1531
1346 1537
1346 1541
1346 1554
1346 1558
1346 1564
1346 1582
1346 1590
1346 1591
1346 1592
1346 1599
1346 1629
1346 1732
1347 1353
1347 1364
1347 1368
1347 1398
1347 1401
1347 1414
1347 1416
1347 1427
1347 1431
1347 1442
1347 1445
1347 1466
1347 1474
1347 1475
1347 1480
1347 1482
1347 1487
1347 1490
1347 1509
1347 1510
1347 1514
1347 1516
1347 1531
1347 1553
1347 1558
1347 1561
1347 1568
1347 1570
1347 1572
1347 1596
1347 1711
1348 1369
1348 1373
1348 1401
1348 1418
1348 1421
1348 1439
1348 1451
1348 1455
1348 1462
1348 1465
1348 1466
1348 1479
1348 1484
1348 1500
1348 1503
1348 1504
1348 1509
1348 1534
1348 1539
1348 1553
1348 1574
1348 1579
1348 1580
1348 1590
1348 1599
1348 1743
1349 1364
1349 1367
1349 1371
1349 1376
1349 1377
1349 1391
1349 1395
1349 1400
1349 1407
1349 1411
1349 1415
1349 1419
1349 1426
1349 1432
1349 1437
1349 1445
1349 1447
1349 1458
1349 1461
1349 1466
1349 1467
1349 1468
1349 1470
1349 1473
1349 1491
1349 1494
1349 1507
1349 1529
1349 1536
1349 1537
1349 1538
1349 1547
1349 1556
1349 1558
1349 1590
1350 1367
1350 1368
1350 1377
1350 1387
1350 1395
1350 1400
1350 1405
1350 1412
1350 1423
1350 1432
1350 1436
1350 1449
1350 1471
1350 1477
1350 1490
1350 1509
1350 1537
1350 1541
1350 1543
1350 1549
1350 1550
1350 1575
1350 1577
1350 1578
1350 1597
1350 1982
1351 1355
1351 1367
1351 1372
1351 1378
1351 1383
1351 1385
1351 1400
1351 1409
1351 1412
1351 1419
1351 1433
1351 1460
1351 1472
1351 1481
1351 1484
1351 1496
1351 1499
1351 1502
1351 1510
1351 1511
1351 1516
1351 1517
1351 1526
1351 1552
1351 1560
1351 1568
1351 1569
1351 1586
1351 1589
1351 1592
1351 1593
1352 1355
1352 1367
1352 1389
1352 1407
1352 1413
1352 1422
1352 1426
1352 1433
1352 1445
1352 1454
1352 1462
1352 1464
1352 1474
1352 1496
1352 1503
1352 1508
1352 1512
1352 1519
1352 1530
1352 1535
1352 1546
1352 1556
1352 1562
1352 1565
1352 1571
1352 1572
1352 1577
1352 1595
1352 1736
1353 1383
1353 1392
1353 1413
1353 1414
1353 1417
1353 1426
1353 1435
1353 1436
1353 1450
1353 1481
1353 1489
1353 1493
1353 1498
1353 1500
1353 1513
1353 1515
1353 1519
1353 1541
1353 1545
1353 1549
1353 1568
1353 1569
1353 1573
1354 1357
1354 1358
1354 1362
1354 1378
1354 1445
1354 1448
1354 1449
1354 1457
1354 1460
1354 1466
1354 1467
1354 1472
1354 1479
1354 1493
1354 1494
1354 1529
1354 1540
1354 1552
1354 1560
1354 1572
1354 1574
1354 1584
1354 1587
1354 1592
1354 1668
1355 1356
1355 1365
1355 1367
1355 1372
1355 1378
1355 1381
1355 1391
1355 1396
1355 1402
1355 1406
1355 1414
1355 1432
1355 1452
1355 1464
1355 1469
1355 1485
1355 1490
1355 1495
1355 1499
1355 1500
1355 1530
1355 1533
1355 1535
1355 1538
1355 1544
1355 1551
1355 1557
1355 1564
1355 1572
1355 1588
1355 1722
1356 1358
1356 1359
1356 1361
1356 1369
1356 1382
1356 1389
1356 1397
1356 1399
1356 1438
1356 1440
1356 1454
1356 1457
1356 1463
1356 1485
1356 1509
1356 1516
1356 1525
1356 1532
1356 1536
1356 1546
1356 1556
1356 1562
1356 1565
1356 1568
1356 1576
1356 1582
1356 1585
1356 1590
1357 1383
1357 1388
1357 1400
1357 1425
1357 1431
1357 1455
1357 1458
1357 1463
1357 1490
1357 1496
1357 1499
1357 1500
1357 1510
1357 1511
1357 1515
1357 1516
1357 1524
1357 1528
1357 1539
1357 1545
1357 1554
1357 1582
1357 1594
1357 1596
1358 1370
1358 1397
1358 1400
1358 1401
1358 1404
1358 1411
1358 1451
1358 1454
1358 1492
1358 1502
1358 1503
1358 1520
1358 1521
1358 1523
1358 1545
1358 1699
1359 1370
1359 1376
1359 1382
1359 1384
1359 1392
1359 1403
1359 1404
1359 1408
1359 1409
1359 1412
1359 1413
1359 1418
1359 1424
1359 1454
1359 1457
1359 1465
1359 1470
1359 1474
1359 1490
1359 1499
1359 1537
1359 1558
1359 1569
1359 1571
1359 1576
1359 1583
1359 1584
1359 1585
1359 1826
1360 1374
1360 1389
1360 1403
1360 1415
1360 1420
1360 1422
1360 1430
1360 1438
1360 1450
1360 1452
1360 1464
1360 1483
1360 1494
1360 1547
1360 1555
1360 1564
1360 1566
1361 1376
1361 1384
1361 1386
1361 1409
1361 1415
1361 1431
1361 1441
1361 1449
1361 1454
1361 1457
1361 1473
1361 1494
1361 1495
1361 1501
1361 1507
1361 1511
1361 1513
1361 1534
1361 1535
1361 1542
1361 1554
1361 1562
1361 1576
1361 1583
1361 1593
1362 1388
1362 1390
1362 1395
1362 1396
1362 1402
1362 1419
1362 1428
1362 1446
1362 1450
1362 1451
1362 1457
1362 1467
1362 1477
1362 1489
1362 1491
1362 1494
1362 1502
1362 1505
1362 1511
1362 1517
1362 1538
1362 1542
1362 1572
1362 1593
1362 1598
1362 1599
1363 1371
1363 1372
1363 1391
1363 1402
1363 1406
1363 1413
1363 1429
1363 1454
1363 1469
1363 1484
1363 1497
1363 1500
1363 1506
1363 1516
1363 1551
1363 1563
1363 1568
1363 1578
1363 1587
1363 1590
1363 1595
1364 1365
1364 1367
1364 1376
1364 1384
1364 1388
1364 1389
1364 1398
1364 1410
1364 1414
1364 1429
1364 1441
1364 1451
1364 1463
1364 1469
1364 1486
1364 1504
1364 1516
1364 1517
1364 1523
1364 1528
1364 1530
1364 1538
1364 1543
1364 1547
1364 1566
1364 1586
1364 1593
1364 1594
1364 1595
1365 1366
1365 1374
1365 1376
1365 1380
1365 1382
1365 1386
1365 1387
1365 1389
1365 1397
1365 1399
1365 1402
1365 1403
1365 1417
1365 1423
1365 1440
1365 1459
1365 1483
1365 1485
1365 1489
1365 1491
1365 1494
1365 1497
1365 1521
1365 1527
1365 1534
1365 1536
1365 1555
1365 1564
1365 1571
1365 1577
1365 1594
1365 1595
1365 1596
1366 1371
1366 1395
1366 1401
1366 1412
1366 1437
1366 1445
1366 1454
1366 1459
1366 1476
1366 1511
1366 1519
1366 1522
1366 1537
1366 1538
1366 1542
1366 1545
1366 1554
1366 1559
1366 1571
1366 1576
1367 1369
1367 1377
1367 1380
1367 1394
1367 1400
1367 1408
1367 1415
1367 1421
1367 1431
1367 1446
1367 1457
1367 1462
1367 1463
1367 1471
1367 1487
1367 1493
1367 1499
1367 1550
1367 1551
1367 1554
1367 1566
1367 1579
1367 1580
1367 1587
1367 1591
1367 1595
1367 1599
1368 1377
1368 1382
1368 1392
1368 1402
1368 1403
1368 1423
1368 1428
1368 1440
1368 1442
1368 1444
1368 1455
1368 1465
1368 1468
1368 1471
1368 1481
1368 1489
1368 1496
1368 1504
1368 1505
1368 1515
1368 1523
1368 1524
1368 1534
1368 1536
1368 1538
1368 1541
1368 1557
1368 1560
1368 1562
1368 1565
1368 1567
1368 1569
1368 1591
1368 1595
1368 1689
1369 1377
1369 1378
1369 1383
1369 1385
1369 1388
1369 1396
1369 1398
1369 1415
1369 1431
1369 1440
1369 1454
1369 1455
1369 1460
1369 1473
1369 1534
1369 1540
1369 1548
1369 1553
1369 1575
1369 1580
1369 1586
1369 1828
1370 1387
1370 1395
1370 1416
1370 1425
1370 1429
1370 1441
1370 1445
1370 1453
1370 1475
1370 1484
1370 1489
1370 1501
1370 1505
1370 1511
1370 1513
1370 1515
1370 1518
1370 1521
1370 1524
1370 1529
1370 1534
1370 1545
1370 1546
1370 1557
1370 1562
1370 1593
1370 1594
1370 1596
1371 1374
1371 1378
1371 1393
1371 1396
1371 1401
1371 1403
1371 1409
1371 1427
1371 1444
1371 1445
1371 1446
1371 1449
1371 1453
1371 1460
1371 1466
1371 1478
1371 1481
1371 1486
1371 1499
1371 1500
1371 1507
1371 1515
1371 1529
1371 1541
1371 1557
1371 1559
1371 1560
1371 1566
1371 1576
1371 1578
1371 1585
1371 1593
1371 1594
1371 1596
1372 1377
1372 1378
1372 1396
1372 1402
1372 1403
1372 1404
1372 1410
1372 1426
1372 1430
1372 1436
1372 1452
1372 1463
1372 1467
1372 1468
1372 1479
1372 1494
1372 1495
1372 1496
1372 1505
1372 1515
1372 1526
1372 1528
1372 1548
1372 1582
1372 1691
1372 1902
1373 1380
1373 1395
1373 1402
1373 1411
1373 1416
1373 1423
1373 1428
1373 1436
1373 1441
1373 1447
1373 1459
1373 1464
1373 1472
1373 1475
1373 1480
1373 1484
1373 1517
1373 1518
1373 1555
1373 1568
1373 1570
1373 1571
1373 1581
1373 1584
1373 1586
1373 1591
1373 1596
1374 1386
1374 1388
1374 1391
1374 1392
1374 1400
1374 1409
1374 1413
1374 1414
1374 1429
1374 1442
1374 1445
1374 1446
1374 1447
1374 1460
1374 1461
1374 1470
1374 1484
1374 1485
1374 1488
1374 1489
1374 1501
1374 1513
1374 1514
1374 1532
1374 1550
1374 1552
1374 1557
1374 1594
1374 1794
1374 1820
1374 1992
1375 1376
1375 1395
1375 1396
1375 1398
1375 1414
1375 1427
1375 1435
1375 1441
1375 1446
1375 1457
1375 1467
1375 1469
1375 1471
1375 1474
1375 1485
1375 1501
1375 1510
1375 1534
1375 1537
1375 1538
1375 1561
1375 1571
1375 1582
1375 1585
1375 1597
1376 1401
1376 1428
1376 1433
1376 1440
1376 1442
1376 1455
1376 1461
1376 1462
1376 1463
1376 1482
1376 1493
1376 1503
1376 1505
1376 1512
1376 1515
1376 1524
1376 1546
1376 1547
1376 1548
1376 1562
1376 1575
1376 1580
1376 1587
1376 1589
1376 1590
1376 1595
1376 1599
1376 1831
1377 1384
1377 1408
1377 1420
1377 1426
1377 1430
1377 1435
1377 1448
1377 1462
1377 1467
1377 1469
1377 1482
1377 1488
1377 1494
1377 1495
1377 1502
1377 1503
1377 1505
1377 1507
1377 1521
1377 1522
1377 1525
1377 1530
1377 1545
1377 1546
1377 1549
1377 1552
1377 1558
1377 1566
1377 1578
1377 1586
1377 1596
1378 1379
1378 1399
1378 1434
1378 1471
1378 1475
1378 1479
1378 1485
1378 1487
1378 1489
1378 1511
1378 1536
1378 1560
1378 1574
1378 1577
1378 1588
1378 1590
1379 1382
1379 1396
1379 1416
1379 1436
1379 1444
1379 1449
1379 1453
1379 1483
1379 1486
1379 1505
1379 1524
1379 1525
1379 1528
1379 1545
1379 1556
1379 1583
1379 1588
1379 1594
1379 1629
1380 1400
1380 1407
1380 1419
1380 1424
1380 1444
1380 1463
1380 1480
1380 1516
1380 1546
1380 1555
1380 1557
1380 1560
1380 1568
1380 1584
1381 1395
1381 1397
1381 1400
1381 1402
1381 1420
1381 1427
1381 1432
1381 1437
1381 1464
1381 1471
1381 1501
1381 1510
1381 1532
1381 1535
1381 1536
1381 1545
1381 1556
1381 1562
1381 1571
1381 1577
1381 1689
1381 1803
1381 1968
1382 1384
1382 1391
1382 1408
1382 1410
1382 1412
1382 1415
1382 1416
1382 1422
1382 1428
1382 1434
1382 1454
1382 1462
1382 1464
1382 1472
1382 1475
1382 1481
1382 1491
1382 1505
1382 1510
1382 1515
1382 1526
1382 1529
1382 1531
1382 1541
1382 1563
1382 1569
1382 1579
1382 1588
1382 1594
1382 1598
1383 1387
1383 1397
1383 1405
1383 1415
1383 1427
1383 1437
1383 1454
1383 1466
1383 1475
1383 1478
1383 1479
1383 1483
1383 1488
1383 1495
1383 1502
1383 1552
1383 1555
1383 1569
1383 1582
1383 1588
1384 1411
1384 1430
1384 1445
1384 1455
1384 1479
1384 1496
1384 1503
1384 1504
1384 1512
1384 1525
1384 1532
1384 1547
1384 1558
1384 1560
1384 1561
1385 1392
1385 1398
1385 1402
1385 1421
1385 1425
1385 1442
1385 1444
1385 1446
1385 1448
1385 1449
1385 1454
1385 1480
1385 1482
1385 1508
1385 1519
1385 1520
1385 1531
1385 1539
1385 1544
1385 1554
1385 1556
1385 1561
1385 1594
1385 1595
1385 1936
1386 1414
1386 1425
1386 1430
1386 1448
1386 1450
1386 1452
1386 1459
1386 1484
1386 1493
1386 1499
1386 1511
1386 1525
1386 1531
1386 1532
1386 1535
1386 1536
1386 1537
1386 1548
1386 1549
1386 1559
1386 1561
1386 1570
1386 1580
1386 1581
1386 1588
1387 1395
1387 1400
1387 1401
1387 1412
1387 1415
1387 1418
1387 1425
1387 1436
1387 1438
1387 1448
1387 1451
1387 1462
1387 1487
1387 1508
1387 1522
1387 1534
1387 1548
1387 1578
1387 1585
1387 1598
1388 1398
1388 1402
1388 1413
1388 1424
1388 1427
1388 1439
1388 1448
1388 1479
1388 1492
1388 1500
1388 1501
1388 1504
1388 1510
1388 1536
1388 1537
1388 1540
1388 1543
1388 1547
1388 1548
1388 1550
1388 1552
1388 1559
1388 1577
1388 1580
1388 1896
1389 1393
1389 1398
1389 1408
1389 1443
1389 1453
1389 1471
1389 1475
1389 1492
1389 1495
1389 1513
1389 1515
1389 1526
1389 1531
1389 1555
1389 1566
1389 1575
1389 1582
1389 1832
1390 1426
1390 1439
1390 1443
1390 1446
1390 1447
1390 1452
1390 1457
1390 1466
1390 1468
1390 1479
1390 1480
1390 1503
1390 1508
1390 1519
1390 1522
1390 1529
1390 1544
1390 1546
1390 1553
1390 1557
1390 1580
1390 1584
1390 1592
1390 1681
1390 1828
1391 1396
1391 1398
1391 1400
1391 1404
1391 1413
1391 1432
1391 1448
1391 1451
1391 1452
1391 1476
1391 1483
1391 1485
1391 1496
1391 1512
1391 1524
1391 1530
1391 1541
1391 1547
1391 1565
1391 1576
1391 1588
1391 1595
1392 1395
1392 1396
1392 1397
1392 1400
1392 1403
1392 1404
1392 1411
1392 1415
1392 1425
1392 1443
1392 1444
1392 1450
1392 1467
1392 1491
1392 1507
1392 1529
1392 1533
1392 1535
1392 1543
1392 1546
1392 1554
1392 1565
1392 1567
1392 1570
1392 1574
1392 1584
1392 1585
1393 1424
1393 1426
1393 1431
1393 1450
1393 1460
1393 1461
1393 1475
1393 1483
1393 1487
1393 1502
1393 1504
1393 1513
1393 1520
1393 1539
1393 1540
1393 1542
1393 1551
1393 1571
1393 1583
1393 1587
1393 1592
1394 1396
1394 1406
1394 1409
1394 1413
1394 1414
1394 1419
1394 1423
1394 1427
1394 1441
1394 1453
1394 1471
1394 1495
1394 1525
1394 1535
1394 1538
1394 1543
1394 1549
1394 1589
1394 1595
1394 1597
1395 1399
1395 1404
1395 1406
1395 1430
1395 1433
1395 1445
1395 1464
1395 1483
1395 1497
1395 1511
1395 1519
1395 1540
1395 1548
1395 1550
1395 1558
1395 1573
1395 1578
1395 1583
1395 1586
1395 1593
1396 1423
1396 1445
1396 1449
1396 1456
1396 1467
1396 1468
1396 1469
1396 1484
1396 1485
1396 1493
1396 1511
1396 1514
1396 1533
1396 1554
1396 1566
1396 1568
1396 1569
1396 1570
1396 1587
1396 1589
1396 1590
1396 1593
1396 1667
1397 1401
1397 1413
1397 1416
1397 1424
1397 1425
1397 1463
1397 1469
1397 1483
1397 1485
1397 1489
1397 1507
1397 1522
1397 1525
1397 1538
1397 1555
1397 1558
1397 1581
1398 1405
1398 1427
1398 1439
1398 1444
1398 1445
1398 1454
1398 1464
1398 1486
1398 1489
1398 1521
1398 1524
1398 1525
1398 1574
1398 1586
1398 1588
1398 1593
1399 1402
1399 1408
1399 1415
1399 1423
1399 1426
1399 1427
1399 1430
1399 1446
1399 1449
1399 1453
1399 1472
1399 1484
1399 1495
1399 1501
1399 1515
1399 1526
1399 1534
1399 1540
1399 1544
1399 1552
1399 1578
1399 1589
1400 1412
1400 1436
1400 1441
1400 1453
1400 1457
1400 1474
1400 1483
1400 1488
1400 1493
1400 1495
1400 1517
1400 1525
1400 1532
1400 1533
1400 1540
1400 1550
1400 1571
1400 1575
1400 1596
1400 1599
1400 1945
1401 1404
1401 1427
1401 1433
1401 1435
1401 1445
1401 1449
1401 1450
1401 1460
1401 1479
1401 1489
1401 1490
1401 1516
1401 1532
1401 1543
1401 1553
1401 1562
1401 1564
1401 1574
1401 1578
1401 1582
1401 1583
1402 1405
1402 1429
1402 1450
1402 1468
1402 1482
1402 1487
1402 1520
1402 1529
1402 1530
1402 1539
1402 1548
1402 1550
1402 1555
1402 1585
1402 1587
1402 1588
1402 1589
1402 1596
1403 1418
1403 1422
1403 1439
1403 1451
1403 1463
1403 1468
1403 1496
1403 1497
1403 1502
1403 1504
1403 1514
1403 1527
1403 1531
1403 1548
1403 1549
1403 1555
1403 1563
1403 1564
1403 1579
1403 1890
1404 1412
1404 1418
1404 1468
1404 1469
1404 1483
1404 1487
1404 1493
1404 1503
1404 1516
1404 1527
1404 1529
1404 1534
1404 1546
1404 1558
1404 1572
1404 1589
1404 1596
1405 1408
1405 1426
1405 1431
1405 1456
1405 1461
1405 1463
1405 1475
1405 1496
1405 1507
1405 1516
1405 1552
1405 1567
1405 1568
1405 1572
1405 1589
1405 1593
1405 1676
1405 1858
1406 1420
1406 1422
1406 1424
1406 1425
1406 1428
1406 1430
1406 1449
1406 1450
1406 1459
1406 1464
1406 1465
1406 1466
1406 1473
1406 1478
1406 1480
1406 1491
1406 1492
1406 1518
1406 1549
1406 1562
1406 1566
1406 1597
1406 1598
1406 1665
1407 1408
1407 1416
1407 1429
1407 1430
1407 1445
1407 1452
1407 1453
1407 1473
1407 1488
1407 1491
1407 1520
1407 1523
1407 1535
1407 1537
1407 1543
1407 1544
1407 1549
1407 1573
1407 1576
1407 1599
1408 1409
1408 1410
1408 1412
1408 1420
1408 1429
1408 1430
1408 1454
1408 1459
1408 1467
1408 1470
1408 1491
1408 1504
1408 1508
1408 1511
1408 1522
1408 1523
1408 1553
1408 1554
1408 1558
1408 1559
1408 1563
1408 1565
1408 1571
1408 1574
1408 1577
1408 1581
1409 1410
1409 1415
1409 1422
1409 1437
1409 1438
1409 1443
1409 1451
1409 1454
1409 1463
1409 1467
1409 1473
1409 1488
1409 1490
1409 1494
1409 1497
1409 1498
1409 1510
1409 1528
1409 1529
1409 1547
1409 1563
1409 1566
1409 1574
1409 1579
1409 1588
1410 1422
1410 1431
1410 1432
1410 1440
1410 1447
1410 1450
1410 1467
1410 1474
1410 1479
1410 1480
1410 1483
1410 1484
1410 1488
1410 1489
1410 1498
1410 1504
1410 1505
1410 1507
1410 1517
1410 1522
1410 1541
1410 1560
1410 1563
1410 1571
1410 1574
1410 1583
1410 1587
1410 1589
1411 1422
1411 1427
1411 1435
1411 1438
1411 1449
1411 1468
1411 1479
1411 1491
1411 1521
1411 1555
1411 1560
1411 1564
1411 1581
1411 1593
1412 1414
1412 1460
1412 1463
1412 1489
1412 1490
1412 1492
1412 1496
1412 1515
1412 1524
1412 1543
1412 1549
1412 1550
1412 1559
1412 1565
1412 1567
1412 1569
1412 1573
1412 1574
1412 1586
1412 1885
1413 1417
1413 1467
1413 1475
1413 1495
1413 1503
1413 1516
1413 1521
1413 1535
1413 1539
1413 1552
1413 1557
1413 1564
1413 1570
1413 1576
1413 1589
1413 1597
1414 1415
1414 1419
1414 1431
1414 1436
1414 1440
1414 1448
1414 1462
1414 1475
1414 1478
1414 1494
1414 1496
1414 1504
1414 1509
1414 1517
1414 1519
1414 1529
1414 1544
1414 1561
1414 1562
1414 1565
1414 1574
1414 1580
1414 1582
1414 1598
1414 1658
1415 1421
1415 1432
1415 1443
1415 1446
1415 1456
1415 1479
1415 1486
1415 1490
1415 1492
1415 1522
1415 1556
1415 1583
1415 1591
1415 1597
1416 1419
1416 1421
1416 1424
1416 1432
1416 1440
1416 1447
1416 1449
1416 1452
1416 1455
1416 1458
1416 1464
1416 1477
1416 1478
1416 1480
1416 1484
1416 1487
1416 1490
1416 1491
1416 1508
1416 1511
1416 1520
1416 1532
1416 1534
1416 1549
1416 1553
1416 1554
1416 1560
1416 1564
1416 1574
1416 1576
1416 1580
1416 1586
1416 1597
1417 1418
1417 1424
1417 1439
1417 1449
1417 1455
1417 1458
1417 1467
1417 1476
1417 1498
1417 1506
1417 1509
1417 1517
1417 1518
1417 1523
1417 1527
1417 1529
1417 1536
1417 1540
1417 1542
1417 1543
1417 1547
1417 1562
1417 1565
1417 1568
1417 1574
1417 1576
1417 1581
1417 1588
1417 1589
1417 1591
1417 1592
1417 1995
1418 1438
1418 1443
1418 1472
1418 1475
1418 1497
1418 1498
1418 1519
1418 1520
1418 1528
1418 1538
1418 1539
1418 1543
1418 1559
1418 1561
1418 1574
1418 1586
1418 1588
1418 1595
1418 1597
1418 1990
1419 1428
1419 1431
1419 1441
1419 1453
1419 1455
1419 1465
1419 1492
1419 1504
1419 1520
1419 1528
1419 1571
1419 1573
1419 1599
1420 1424
1420 1435
1420 1438
1420 1462
1420 1467
1420 1470
1420 1474
1420 1479
1420 1496
1420 1504
1420 1527
1420 1528
1420 1547
1420 1554
1420 1558
1420 1567
1420 1575
1420 1588
1420 1592
1420 1594
1421 1433
1421 1436
1421 1455
1421 1456
1421 1483
1421 1508
1421 1511
1421 1515
1421 1532
1421 1541
1421 1544
1421 1558
1421 1560
1421 1566
1421 1582
1421 1590
1421 1591
1421 1593
1422 1436
1422 1452
1422 1458
1422 1467
1422 1470
1422 1474
1422 1476
1422 1503
1422 1533
1422 1544
1422 1548
1422 1561
1422 1563
1422 1574
1422 1579
1422 1580
1422 1587
1422 1595
1422 1958
1423 1424
1423 1436
1423 1439
1423 1453
1423 1456
1423 1482
1423 1500
1423 1514
1423 1543
1423 1552
1423 1588
1423 1593
1424 1448
1424 1462
1424 1487
1424 1493
1424 1496
1424 1503
1424 1523
1424 1528
1424 1539
1424 1570
1424 1578
1424 1592
1425 1431
1425 1453
1425 1459
1425 1462
1425 1463
1425 1474
1425 1480
1425 1482
1425 1488
1425 1501
1425 1504
1425 1506
1425 1512
1425 1513
1425 1528
1425 1532
1425 1540
1425 1551
1425 1555
1425 1562
1425 1566
1425 1573
1426 1428
1426 1434
1426 1438
1426 1443
1426 1451
1426 1473
1426 1478
1426 1485
1426 1491
1426 1494
1426 1496
1426 1519
1426 1534
1426 1559
1426 1577
1426 1710
1427 1428
1427 1437
1427 1452
1427 1459
1427 1484
1427 1486
1427 1500
1427 1501
1427 1506
1427 1520
1427 1522
1427 1530
1427 1561
1427 1574
1427 1578
1427 1581
1427 1588
1428 1438
1428 1471
1428 1477
1428 1489
1428 1506
1428 1508
1428 1511
1428 1521
1428 1526
1428 1528
1428 1532
1428 1538
1428 1559
1428 1582
1428 1596
1428 1861
1429 1438
1429 1441
1429 1455
1429 1476
1429 1481
1429 1492
1429 1522
1429 1524
1429 1533
1429 1542
1429 1545
1429 1562
1429 1566
1429 1567
1429 1581
1429 1584
1429 1585
1429 1597
1430 1440
1430 1453
1430 1467
1430 1468
1430 1480
1430 1481
1430 1498
1430 1506
1430 1517
1430 1540
1430 1575
1430 1593
1430 1598
1430 1658
1430 1712
1431 1460
1431 1470
1431 1476
1431 1480
1431 1485
1431 1486
1431 1490
1431 1506
1431 1517
1431 1523
1431 1524
1431 1536
1431 1541
1431 1544
1431 1554
1431 1565
1431 1569
1431 1570
1431 1586
1431 1589
1431 1599
1432 1436
1432 1454
1432 1466
1432 1475
1432 1484
1432 1498
1432 1499
1432 1522
1432 1536
1432 1569
1432 1589
1433 1437
1433 1448
1433 1472
1433 1475
1433 1476
1433 1489
1433 1494
1433 1497
1433 1512
1433 1514
1433 1527
1433 1539
1433 1541
1433 1543
1433 1576
1433 1582
1433 1591
1433 1592
1434 1451
1434 1454
1434 1464
1434 1495
1434 1506
1434 1512
1434 1525
1434 1528
1434 1532
1434 1539
1434 1556
1434 1568
1434 1572
1434 1574
1434 1595
1434 1597
1435 1452
1435 1456
1435 1457
1435 1461
1435 1489
1435 1529
1435 1532
1435 1544
1435 1552
1435 1554
1435 1570
1435 1571
1435 1574
1435 1775
1436 1445
1436 1459
1436 1460
1436 1463
1436 1489
1436 1496
1436 1509
1436 1512
1436 1527
1436 1565
1437 1460
1437 1469
1437 1473
1437 1480
1437 1485
1437 1493
1437 1501
1437 1504
1437 1505
1437 1532
1437 1537
1437 1547
1437 1554
1437 1563
1437 1573
1438 1442
1438 1443
1438 1446
1438 1453
1438 1459
1438 1467
1438 1472
1438 1483
1438 1500
1438 1505
1438 1513
1438 1554
1438 1559
1438 1569
1438 1575
1438 1581
1439 1458
1439 1462
1439 1471
1439 1475
1439 1477
1439 1487
1439 1491
1439 1493
1439 1495
1439 1506
1439 1510
1439 1518
1439 1530
1439 1538
1439 1541
1439 1545
1439 1556
1439 1566
1439 1587
1439 1593
1439 1599
1440 1453
1440 1459
1440 1468
1440 1483
1440 1485
1440 1491
1440 1510
1440 1518
1440 1537
1440 1540
1440 1541
1440 1543
1440 1550
1440 1555
1440 1563
1440 1569
1440 1570
1440 1571
1440 1588
1441 1444
1441 1450
1441 1463
1441 1477
1441 1509
1441 1512
1441 1522
1441 1524
1441 1525
1441 1528
1441 1545
1441 1555
1441 1568
1441 1574
1441 1578
1441 1594
1442 1455
1442 1466
1442 1481
1442 1485
1442 1488
1442 1535
1442 1552
1442 1555
1442 1578
1443 1452
1443 1453
1443 1457
1443 1468
1443 1475
1443 1480
1443 1500
1443 1515
1443 1537
1443 1541
1443 1546
1443 1550
1443 1556
1443 1594
1444 1455
1444 1471
1444 1473
1444 1485
1444 1490
1444 1510
1444 1515
1444 1525
1444 1527
1444 1532
1444 1537
1444 1562
1444 1572
1444 1577
1445 1454
1445 1462
1445 1471
1445 1491
1445 1495
1445 1496
1445 1515
1445 1523
1445 1525
1445 1550
1445 1560
1445 1571
1445 1576
1445 1577
1445 1582
1445 1595
1445 1986
1446 1450
1446 1451
1446 1457
1446 1469
1446 1483
1446 1492
1446 1496
1446 1500
1446 1511
1446 1517
1446 1531
1446 1534
1446 1549
1446 1564
1446 1569
1446 1571
1446 1581
1446 1586
1446 1587
1446 1592
1447 1448
1447 1458
1447 1461
1447 1464
1447 1476
1447 1487
1447 1496
1447 1499
1447 1504
1447 1537
1447 1543
1447 1556
1447 1573
1447 1574
1447 1669
1448 1453
1448 1465
1448 1471
1448 1477
1448 1482
1448 1491
1448 1503
1448 1506
1448 1516
1448 1529
1448 1542
1448 1561
1448 1567
1448 1571
1448 1572
1448 1574
1448 1575
1448 1576
1448 1582
1448 1584
1448 1594
1448 1596
1448 1597
1448 1807
1449 1451
1449 1469
1449 1474
1449 1480
1449 1482
1449 1491
1449 1493
1449 1508
1449 1540
1449 1547
1449 1563
1449 1564
1449 1581
1449 1753
1450 1452
1450 1453
1450 1484
1450 1485
1450 1497
1450 1502
1450 1511
1450 1512
1450 1524
1450 1530
1450 1531
1450 1536
1450 1552
1450 1553
1450 1572
1450 1585
1450 1586
1451 1461
1451 1480
1451 1490
1451 1491
1451 1493
1451 1512
1451 1514
1451 1517
1451 1519
1451 1525
1451 1537
1451 1570
1451 1586
1451 1589
1451 1597
1452 1453
1452 1456
1452 1458
1452 1467
1452 1486
1452 1488
1452 1489
1452 1490
1452 1507
1452 1543
1452 1544
1452 1560
1452 1563
1452 1565
1452 1577
1452 1596
1452 1597
1453 1454
1453 1465
1453 1471
1453 1483
1453 1484
1453 1488
1453 1490
1453 1497
1453 1513
1453 1521
1453 1526
1453 1547
1453 1558
1453 1580
1453 1582
1453 1584
1453 1585
1453 1586
1453 1587
1453 1595
1454 1455
1454 1459
1454 1463
1454 1479
1454 1490
1454 1493
1454 1512
1454 1515
1454 1516
1454 1520
1454 1534
1454 1536
1454 1539
1454 1557
1454 1566
1454 1568
1454 1571
1455 1468
1455 1483
1455 1484
1455 1485
1455 1488
1455 1508
1455 1517
1455 1527
1455 1537
1455 1543
1455 1561
1455 1568
1455 1572
1455 1581
1455 1590
1455 1592
1455 1595
1456 1465
1456 1478
1456 1482
1456 1488
1456 1521
1456 1526
1456 1527
1456 1537
1456 1543
1456 1550
1456 1565
1456 1589
1456 1590
1456 1595
1456 1691
1457 1458
1457 1459
1457 1503
1457 1505
1457 1515
1457 1541
1457 1555
1457 1557
1457 1567
1457 1581
1457 1582
1457 1585
1457 1597
1458 1463
1458 1479
1458 1507
1458 1510
1458 1513
1458 1527
1458 1532
1458 1551
1458 1552
1458 1556
1458 1564
1458 1571
1458 1661
1458 1805
1459 1475
1459 1478
1459 1494
1459 1502
1459 1503
1459 1505
1459 1511
1459 1513
1459 1514
1459 1524
1459 1532
1459 1541
1459 1543
1459 1569
1459 1595
1460 1469
1460 1470
1460 1472
1460 1475
1460 1478
1460 1479
1460 1480
1460 1510
1460 1520
1460 1529
1460 1548
1460 1556
1460 1568
1460 1577
1460 1579
1460 1585
1460 1588
1461 1473
1461 1484
1461 1486
1461 1500
1461 1501
1461 1504
1461 1517
1461 1531
1461 1554
1461 1558
1461 1569
1461 1570
1461 1572
1461 1579
1462 1471
1462 1480
1462 1492
1462 1505
1462 1512
1462 1520
1462 1522
1462 1534
1462 1537
1462 1545
1462 1569
1462 1570
1462 1576
1462 1592
1463 1471
1463 1480
1463 1508
1463 1509
1463 1515
1463 1554
1463 1559
1463 1578
1463 1586
1463 1593
1464 1466
1464 1497
1464 1500
1464 1507
1464 1512
1464 1523
1464 1526
1464 1543
1464 1552
1464 1569
1464 1574
1464 1576
1464 1590
1464 1591
1465 1469
1465 1474
1465 1477
1465 1486
1465 1490
1465 1500
1465 1510
1465 1515
1465 1537
1465 1553
1465 1567
1465 1568
1465 1570
1465 1599
1466 1468
1466 1474
1466 1477
1466 1485
1466 1486
1466 1492
1466 1506
1466 1509
1466 1510
1466 1533
1466 1537
1466 1561
1466 1587
1466 1596
1466 1598
1466 1664
1466 1964
1467 1469
1467 1471
1467 1473
1467 1479
1467 1496
1467 1501
1467 1506
1467 1508
1467 1509
1467 1520
1467 1521
1467 1540
1467 1552
1467 1578
1467 1580
1467 1586
1467 1590
1467 1843
1468 1469
1468 1507
1468 1520
1468 1542
1468 1555
1468 1557
1468 1569
1469 1487
1469 1505
1469 1513
1469 1517
1469 1523
1469 1533
1469 1538
1469 1541
1469 1542
1469 1543
1469 1544
1469 1547
1469 1551
1469 1553
1469 1559
1469 1565
1469 1573
1469 1575
1469 1579
1469 1580
1469 1589
1469 1737
1470 1473
1470 1481
1470 1488
1470 1490
1470 1491
1470 1510
1470 1528
1470 1531
1470 1537
1470 1539
1470 1551
1470 1553
1470 1576
1470 1584
1470 1597
1471 1476
1471 1480
1471 1490
1471 1506
1471 1524
1471 1538
1471 1539
1471 1548
1471 1575
1472 1476
1472 1502
1472 1505
1472 1523
1472 1528
1472 1532
1472 1536
1472 1541
1472 1549
1472 1563
1472 1564
1472 1566
1472 1575
1472 1578
1472 1584
1472 1593
1473 1480
1473 1503
1473 1509
1473 1514
1473 1519
1473 1545
1473 1549
1473 1551
1473 1553
1473 1557
1473 1561
1473 1564
1473 1565
1473 1572
1473 1582
1473 1588
1473 1595
1474 1476
1474 1487
1474 1511
1474 1513
1474 1514
1474 1536
1474 1551
1474 1573
1474 1580
1474 1591
1474 1596
1474 1599
1475 1481
1475 1484
1475 1493
1475 1504
1475 1505
1475 1514
1475 1528
1475 1532
1475 1544
1475 1552
1475 1557
1475 1575
1475 1581
1475 1587
1476 1483
1476 1486
1476 1494
1476 1504
1476 1512
1476 1516
1476 1526
1476 1540
1476 1547
1476 1554
1476 1563
1476 1567
1476 1571
1476 1591
1477 1486
1477 1497
1477 1511
1477 1512
1477 1524
1477 1530
1477 1532
1477 1564
1477 1567
1477 1586
1477 1592
1478 1480
1478 1484
1478 1491
1478 1496
1478 1522
1478 1536
1478 1543
1478 1558
1478 1571
1478 1585
1478 1587
1478 1588
1478 1591
1478 1601
1478 1907
1479 1482
1479 1484
1479 1487
1479 1500
1479 1519
1479 1539
1479 1541
1479 1563
1479 1564
1479 1566
1479 1572
1479 1587
1479 1589
1479 1599
1479 1625
1480 1484
1480 1496
1480 1511
1480 1515
1480 1521
1480 1535
1480 1546
1480 1558
1480 1562
1480 1572
1480 1599
1481 1494
1481 1508
1481 1533
1481 1539
1481 1546
1481 1565
1481 1582
1481 1589
1481 1594
1481 1597
1481 1598
1481 1870
1482 1492
1482 1508
1482 1512
1482 1519
1482 1532
1482 1550
1482 1564
1482 1579
1482 1583
1482 1613
1483 1486
1483 1496
1483 1501
1483 1510
1483 1517
1483 1547
1483 1549
1483 1550
1483 1551
1483 1554
1483 1557
1483 1566
1483 1570
1483 1587
1483 1597
1483 1599
1483 1932
1484 1490
1484 1494
1484 1509
1484 1511
1484 1515
1484 1523
1484 1526
1484 1546
1484 1560
1484 1575
1484 1578
1484 1580
1484 1583
1484 1596
1485 1487
1485 1491
1485 1496
1485 1504
1485 1505
1485 1522
1485 1543
1485 1548
1485 1573
1485 1579
1485 1584
1485 1587
1485 1591
1485 1599
1485 1634
1486 1501
1486 1504
1486 1515
1486 1528
1486 1529
1486 1530
1486 1532
1486 1537
1486 1540
1486 1558
1486 1561
1486 1562
1486 1582
1486 1586
1486 1589
1486 1595
1486 1599
1487 1498
1487 1507
1487 1515
1487 1549
1487 1552
1487 1580
1487 1594
1487 1693
1487 1965
1488 1491
1488 1499
1488 1512
1488 1536
1488 1546
1488 1552
1488 1558
1488 1564
1488 1570
1488 1571
1488 1577
1488 1578
1488 1588
1488 1597
1489 1493
1489 1495
1489 1502
1489 1511
1489 1514
1489 1544
1489 1545
1489 1556
1489 1561
1489 1577
1489 1587
1489 1921
1490 1514
1490 1521
1490 1522
1490 1523
1490 1529
1490 1551
1490 1557
1490 1593
1490 1867
1491 1501
1491 1502
1491 1517
1491 1532
1491 1544
1491 1566
1491 1572
1491 1591
1491 1685
1492 1508
1492 1516
1492 1519
1492 1535
1492 1558
1492 1563
1492 1565
1492 1591
1492 1596
1492 1599
1493 1510
1493 1516
1493 1532
1493 1544
1493 1563
1493 1574
1493 1576
1493 1709
1494 1501
1494 1502
1494 1510
1494 1514
1494 1527
1494 1528
1494 1547
1494 1553
1494 1563
1494 1577
1494 1587
1494 1597
1494 1919
1495 1505
1495 1539
1495 1552
1495 1560
1495 1571
1495 1577
1495 1588
1495 1765
1496 1520
1496 1522
1496 1528
1496 1547
1496 1550
1496 1565
1496 1575
1496 1589
1496 1590
1496 1596
1497 1513
1497 1528
1497 1548
1497 1556
1497 1566
1497 1571
1497 1574
1497 1585
1497 1596
1497 1598
1498 1502
1498 1504
1498 1514
1498 1521
1498 1532
1498 1533
1498 1537
1498 1552
1498 1555
1498 1557
1498 1568
1498 1575
1498 1578
1498 1585
1498 1587
1498 1590
1499 1500
1499 1503
1499 1506
1499 1507
1499 1524
1499 1531
1499 1561
1499 1578
1499 1583
1499 1596
1500 1542
1500 1543
1500 1547
1500 1557
1500 1559
1500 1560
1500 1574
1500 1589
1501 1502
1501 1507
1501 1524
1501 1527
1501 1533
1501 1539
1501 1543
1501 1556
1501 1570
1501 1571
1501 1579
1501 1580
1501 1585
1501 1587
1501 1592
1501 1904
1501 1990
1502 1508
1502 1511
1502 1513
1502 1534
1502 1548
1502 1549
1502 1555
1502 1572
1502 1578
1502 1582
1503 1534
1503 1542
1503 1550
1503 1552
1503 1554
1503 1564
1503 1569
1503 1577
1503 1586
1503 1587
1503 1590
1503 1598
1504 1517
1504 1528
1504 1531
1504 1540
1504 1542
1504 1549
1504 1570
1504 1592
1505 1507
1505 1511
1505 1525
1505 1528
1505 1545
1505 1551
1505 1555
1505 1557
1505 1558
1505 1563
1505 1568
1505 1571
1505 1576
1505 1581
1505 1582
1505 1583
1505 1591
1505 1595
1505 1599
1506 1518
1506 1523
1506 1528
1506 1529
1506 1540
1506 1581
1506 1590
1506 1593
1507 1511
1507 1519
1507 1541
1507 1547
1507 1548
1507 1549
1507 1550
1507 1568
1507 1570
1507 1571
1507 1582
1507 1587
1507 1598
1508 1516
1508 1518
1508 1523
1508 1541
1508 1545
1508 1555
1508 1566
1508 1596
1508 1911
1509 1514
1509 1520
1509 1539
1509 1546
1509 1568
1509 1585
1509 1587
1510 1512
1510 1513
1510 1525
1510 1527
1510 1538
1510 1548
1510 1562
1510 1563
1510 1572
1510 1583
1510 1585
1510 1596
1511 1541
1511 1544
1511 1569
1511 1580
1511 1595
1512 1515
1512 1523
1512 1547
1512 1549
1512 1574
1512 1576
1513 1548
1513 1556
1513 1566
1513 1598
1514 1529
1514 1531
1514 1540
1514 1541
1514 1545
1514 1555
1514 1557
1514 1581
1514 1590
1514 1594
1514 1597
1515 1518
1515 1555
1515 1566
1515 1589
1515 1595
1516 1527
1516 1528
1516 1530
1516 1532
1516 1535
1516 1545
1516 1555
1516 1556
1516 1568
1516 1581
1516 1592
1516 1737
1517 1518
1517 1521
1517 1532
1517 1540
1517 1543
1517 1546
1517 1548
1517 1564
1517 1579
1517 1592
1517 1596
1518 1521
1518 1522
1518 1525
1518 1541
1518 1547
1518 1558
1518 1561
1518 1564
1518 1565
1518 1566
1518 1571
1518 1581
1518 1586
1518 1587
1518 1824
1519 1541
1519 1568
1519 1570
1519 1575
1520 1527
1520 1537
1520 1540
1520 1548
1520 1551
1520 1564
1520 1565
1520 1578
1520 1579
1520 1582
1520 1588
1521 1522
1521 1529
1521 1530
1521 1531
1521 1561
1521 1581
1521 1584
1521 1589
1521 1844
1522 1549
1522 1550
1522 1558
1522 1563
1522 1568
1522 1569
1522 1571
1522 1592
1523 1525
1523 1534
1523 1538
1523 1541
1523 1549
1523 1551
1523 1570
1523 1574
1523 1585
1524 1528
1524 1539
1524 1543
1524 1545
1524 1549
1524 1554
1524 1572
1524 1573
1524 1591
1524 1594
1524 1597
1525 1536
1525 1543
1525 1544
1525 1549
1525 1566
1525 1583
1525 1589
1526 1532
1526 1540
1526 1541
1526 1550
1526 1559
1526 1576
1526 1590
1527 1528
1527 1532
1527 1541
1527 1546
1527 1551
1527 1561
1527 1573
1527 1589
1527 1592
1527 1595
1527 1597
1527 1598
1527 1599
1527 1911
1528 1533
1528 1534
1528 1555
1528 1556
1528 1572
1528 1586
1528 1587
1529 1539
1529 1552
1529 1563
1529 1572
1529 1857
1530 1535
1530 1548
1530 1551
1530 1567
1530 1578
1530 1579
1531 1549
1531 1551
1531 1552
1531 1556
1531 1558
1531 1561
1531 1566
1531 1567
1531 1568
1531 1587
1531 1588
1531 1665
1532 1568
1532 1577
1532 1578
1532 1590
1533 1536
1533 1544
1533 1553
1533 1558
1533 1559
1533 1568
1533 1578
1533 1588
1534 1545
1534 1547
1534 1555
1534 1561
1534 1581
1534 1583
1534 1603
1534 1620
1535 1541
1535 1555
1535 1583
1535 1669
1535 1696
1535 1862
1536 1542
1536 1556
1536 1565
1536 1596
1536 1694
1537 1556
1537 1573
1537 1589
1537 1590
1537 1595
1537 1598
1538 1565
1538 1567
1538 1573
1538 1580
1538 1585
1539 1541
1539 1553
1539 1558
1539 1561
1539 1562
1539 1563
1539 1577
1539 1582
1539 1589
1539 1592
1540 1551
1540 1569
1540 1587
1541 1545
1541 1552
1541 1555
1541 1557
1541 1575
1541 1580
1542 1551
1542 1561
1542 1562
1542 1563
1542 1576
1542 1577
1542 1586
1542 1599
1543 1554
1543 1559
1543 1564
1543 1578
1543 1579
1543 1582
1543 1583
1543 1587
1543 1588
1543 1594
1543 1619
1544 1556
1544 1567
1544 1568
1544 1590
1544 1591
1545 1549
1545 1567
1545 1582
1545 1833
1545 1979
1547 1558
1547 1559
1547 1582
1547 1595
1547 1596
1548 1550
1548 1552
1548 1570
1548 1571
1548 1576
1548 1592
1548 1598
1549 1561
1549 1574
1549 1585
1549 1594
1550 1558
1550 1567
1550 1574
1550 1580
1550 1582
1550 1583
1550 1596
1550 1597
1551 1552
1551 1586
1551 1587
1551 1588
1552 1559
1552 1560
1552 1579
1552 1588
1552 1878
1553 1569
1553 1579
1553 1580
1553 1584
1553 1593
1553 1784
1554 1556
1554 1557
1554 1561
1554 1583
1554 1586
1554 1590
1554 1591
1554 1736
1555 1556
1555 1559
1555 1565
1555 1572
1555 1573
1555 1578
1555 1580
1555 1584
1555 1597
1555 1598
1556 1558
1556 1565
1556 1574
1556 1584
1556 1598
1556 1599
1556 1889
1557 1566
1557 1573
1557 1575
1557 1577
1557 1599
1557 1960
1558 1560
1558 1567
1558 1572
1558 1574
1558 1807
1559 1570
1559 1578
1559 1584
1559 1593
1559 1594
1559 1776
1560 1569
1560 1572
1560 1575
1560 1578
1560 1595
1561 1566
1561 1590
1561 1726
1562 1564
1562 1590
1562 1591
1562 1595
1562 1599
1563 1566
1563 1579
1564 1579
1564 1580
1564 1589
1564 1591
1565 1580
1565 1595
1565 1746
1565 1843
1566 1568
1566 1570
1566 1586
1566 1599
1567 1579
1567 1581
1567 1590
1567 1594
1567 1801
1568 1572
1568 1583
1568 1588
1568 1808
1569 1596
1569 1598
1570 1573
1570 1582
1570 1977
1571 1598
1572 1599
1573 1579
1573 1583
1573 1591
1573 1599
1573 1607
1573 1803
1574 1578
1574 1597
1575 1578
1575 1584
1575 1588
1575 1594
1576 1588
1576 1589
1576 1598
1577 1592
1577 1597
1577 1599
1578 1585
1578 1587
1579 1585
1579 1592
1580 1598
1581 1582
1582 1587
1582 1588
1582 1589
1582 1595
1582 1597
1582 1677
1583 1590
1584 1590
1584 1740
1589 1596
1589 1597
1589 1967
1590 1599
1592 1642
1592 1993
1593 1597
1593 1598
1596 1913
1598 1802
1600 1602
1600 1619
1600 1656
1600 1657
1600 1661
1600 1669
1600 1677
1600 1689
1600 1700
1600 1703
1600 1742
1600 1758
1600 1780
1600 1781
1600 1788
1600 1799
1600 1804
1600 1816
1600 1823
1600 1839
1600 1855
1600 1868
1600 1875
1600 1886
1600 1903
1600 1939
1600 1946
1600 1958
1600 1963
1600 1969
1600 1986
1600 1995
1601 1606
1601 1625
1601 1632
1601 1635
1601 1638
1601 1641
1601 1644
1601 1655
1601 1658
1601 1665
1601 1671
1601 1674
1601 1680
1601 1689
1601 1698
1601 1700
1601 1702
1601 1703
1601 1713
1601 1724
1601 1733
1601 1734
1601 1735
1601 1739
1601 1741
1601 1742
1601 1747
1601 1763
1601 1767
1601 1770
1601 1774
1601 1779
1601 1792
1601 1802
1601 1827
1601 1835
1601 1837
1601 1845
1601 1847
1601 1876
1601 1895
1601 1898
1601 1908
1601 1909
1601 1914
1601 1922
1601 1932
1601 1952
1601 1973
1601 1977
1601 1981
1602 1606
1602 1608
1602 1609
1602 1621
1602 1637
1602 1687
1602 1705
1602 1723
1602 1727
1602 1731
1602 1742
1602 1744
1602 1772
1602 1782
1602 1787
1602 1790
1602 1816
1602 1818
1602 1820
1602 1826
1602 1828
1602 1851
1602 1881
1602 1883
1602 1895
1602 1906
1602 1907
1602 1912
1602 1931
1602 1944
1602 1948
1602 1953
1602 1969
1602 1984
1602 1990
1602 1991
1603 1608
1603 1622
1603 1625
1603 1643
1603 1647
1603 1657
1603 1659
1603 1660
1603 1679
1603 1687
1603 1688
1603 1696
1603 1704
1603 1716
1603 1723
1603 1725
1603 1728
1603 1729
1603 1730
1603 1742
1603 1747
1603 1748
1603 1761
1603 1764
1603 1768
1603 1773
1603 1808
1603 1810
1603 1816
1603 1820
1603 1834
1603 1846
1603 1851
1603 1869
1603 1876
1603 1901
1603 1910
1603 1912
1603 1920
1603 1938
1603 1958
1603 1972
1603 1979
1603 1997
1604 1624
1604 1643
1604 1644
1604 1652
1604 1661
1604 1666
1604 1669
1604 1691
1604 1697
1604 1703
1604 1724
1604 1729
1604 1730
1604 1743
1604 1758
1604 1766
1604 1767
1604 1776
1604 1781
1604 1782
1604 1783
1604 1799
1604 1818
1604 1832
1604 1839
1604 1840
1604 1842
1604 1845
1604 1851
1604 1856
1604 1866
1604 1874
1604 1888
1604 1889
1604 1898
1604 1915
1604 1923
1604 1928
1604 1931
1604 1933
1604 1937
1604 1978
1605 1614
1605 1622
1605 1642
1605 1645
1605 1660
1605 1676
1605 1682
1605 1693
1605 1715
1605 1730
1605 1752
1605 1756
1605 1765
1605 1770
1605 1771
1605 1794
1605 1795
1605 1803
1605 1827
1605 1843
1605 1853
1605 1861
1605 1866
1605 1867
1605 1869
1605 1870
1605 1871
1605 1872
1605 1893
1605 1911
1605 1912
1605 1918
1605 1919
1605 1959
1605 1960
1605 1972
1605 1973
1605 1981
1605 1982
1605 1996
1606 1625
1606 1626
1606 1627
1606 1628
1606 1633
1606 1660
1606 1664
1606 1670
1606 1678
1606 1704
1606 1720
1606 1721
1606 1723
1606 1731
1606 1737
1606 1752
1606 1753
1606 1755
1606 1759
1606 1765
1606 1767
1606 1779
1606 1783
1606 1798
1606 1805
1606 1815
1606 1816
1606 1826
1606 1832
1606 1840
1606 1841
1606 1866
1606 1871
1606 1887
1606 1895
1606 1896
1606 1918
1606 1922
1606 1940
1606 1944
1606 1945
1606 1987
1607 1608
1607 1612
1607 1627
1607 1633
1607 1634
1607 1648
1607 1666
1607 1673
1607 1680
1607 1682
1607 1695
1607 1699
1607 1700
1607 1721
1607 1726
1607 1740
1607 1759
1607 1788
1607 1801
1607 1803
1607 1830
1607 1835
1607 1850
1607 1865
1607 1868
1607 1877
1607 1886
1607 1893
1607 1899
1607 1903
1607 1919
1607 1924
1607 1930
1607 1973
1607 1979
1607 1982
1607 1984
1607 1986
1607 1998
1608 1613
1608 1622
1608 1624
1608 1626
1608 1629
1608 1630
1608 1639
1608 1641
1608 1657
1608 1658
1608 1665
1608 1703
1608 1718
1608 1726
1608 1736
1608 1746
1608 1756
1608 1764
1608 1773
1608 1775
1608 1785
1608 1793
1608 1811
1608 1812
1608 1813
1608 1815
1608 1821
1608 1823
1608 1826
1608 1828
1608 1847
1608 1850
1608 1869
1608 1875
1608 1882
1608 1886
1608 1887
1608 1889
1608 1891
1608 1897
1608 1901
1608 1921
1608 1922
1608 1927
1608 1928
1608 1930
1608 1958
1608 1961
1608 1967
1608 1976
1608 1982
1609 1616
1609 1629
1609 1636
1609 1645
1609 1653
1609 1660
1609 1680
1609 1682
1609 1686
1609 1706
1609 1710
1609 1742
1609 1746
1609 1748
1609 1749
1609 1778
1609 1796
1609 1801
1609 1805
1609 1808
1609 1814
1609 1825
1609 1857
1609 1863
1609 1875
1609 1878
1609 1892
1609 1903
1609 1904
1609 1905
1609 1911
1609 1925
1609 1939
1609 1941
1609 1962
1609 1970
1609 1972
1609 1973
1609 1982
1609 1996
1610 1614
1610 1620
1610 1626
1610 1641
1610 1649
1610 1650
1610 1669
1610 1672
1610 1674
1610 1685
1610 1697
1610 1701
1610 1705
1610 1709
1610 1720
1610 1732
1610 1740
1610 1758
1610 1787
1610 1803
1610 1808
1610 1845
1610 1846
1610 1854
1610 1858
1610 1859
1610 1860
1610 1867
1610 1871
1610 1872
1610 1876
1610 1879
1610 1889
1610 1890
1610 1895
1610 1900
1610 1905
1610 1921
1610 1928
1610 1929
1610 1932
1610 1935
1610 1940
1610 1945
1610 1963
1610 1967
1610 1970
1610 1982
1610 1986
1611 1627
1611 1631
1611 1636
1611 1638
1611 1682
1611 1692
1611 1694
1611 1708
1611 1720
1611 1760
1611 1762
1611 1768
1611 1797
1611 1804
1611 1811
1611 1812
1611 1814
1611 1821
1611 1842
1611 1847
1611 1852
1611 1867
1611 1873
1611 1885
1611 1897
1611 1907
1611 1918
1611 1937
1611 1941
1611 1952
1611 1956
1611 1961
1611 1971
1611 1972
1611 1984
1611 1993
1611 1997
1611 1999
1612 1613
1612 1617
1612 1619
1612 1631
1612 1642
1612 1652
1612 1653
1612 1654
1612 1656
1612 1690
1612 1692
1612 1734
1612 1735
1612 1746
1612 1748
1612 1775
1612 1780
1612 1810
1612 1823
1612 1825
1612 1831
1612 1851
1612 1873
1612 1878
1612 1882
1612 1900
1612 1905
1612 1908
1612 1911
1612 1913
1612 1937
1612 1946
1612 1951
1612 1957
1612 1978
1612 1979
1613 1620
1613 1625
1613 1626
1613 1638
1613 1643
1613 1645
1613 1647
1613 1648
1613 1659
1613 1665
1613 1678
1613 1689
1613 1690
1613 1695
1613 1704
1613 1731
1613 1732
1613 1736
1613 1743
1613 1756
1613 1757
1613 1766
1613 1770
1613 1783
1613 1790
1613 1791
1613 1798
1613 1808
1613 1813
1613 1815
1613 1821
1613 1822
1613 1836
1613 1850
1613 1866
1613 1870
1613 1873
1613 1876
1613 1895
1613 1908
1613 1912
1613 1916
1613 1920
1613 1928
1613 1964
1613 1965
1613 1975
1614 1615
1614 1643
1614 1703
1614 1706
1614 1707
1614 1708
1614 1713
1614 1715
1614 1721
1614 1740
1614 1756
1614 1763
1614 1769
1614 1782
1614 1783
1614 1798
1614 1808
1614 1809
1614 1813
1614 1816
1614 1822
1614 1843
1614 1844
1614 1853
1614 1858
1614 1897
1614 1908
1614 1910
1614 1919
1614 1937
1614 1946
1614 1951
1614 1965
1614 1972
1614 1989
1614 1990
1614 1992
1615 1616
1615 1622
1615 1628
1615 1647
1615 1664
1615 1669
1615 1683
1615 1689
1615 1696
1615 1716
1615 1721
1615 1722
1615 1744
1615 1757
1615 1769
1615 1770
1615 1776
1615 1784
1615 1790
1615 1798
1615 1805
1615 1833
1615 1876
1615 1878
1615 1900
1615 1909
1615 1917
1615 1926
1615 1929
1615 1934
1615 1965
1615 1970
1615 1978
1615 1981
1615 1983
1616 1619
1616 1633
1616 1644
1616 1653
1616 1654
1616 1655
1616 1661
1616 1662
1616 1676
1616 1679
1616 1683
1616 1693
1616 1702
1616 1703
1616 1720
1616 1725
1616 1747
1616 1748
1616 1749
1616 1756
1616 1758
1616 1759
1616 1761
1616 1763
1616 1767
1616 1768
1616 1773
1616 1774
1616 1785
1616 1789
1616 1791
1616 1798
1616 1800
1616 1813
1616 1825
1616 1836
1616 1845
1616 1877
1616 1881
1616 1894
1616 1908
1616 1909
1616 1912
1616 1914
1616 1929
1616 1965
1616 1967
1616 1976
1616 1992
1617 1623
1617 1624
1617 1626
1617 1643
1617 1646
1617 1656
1617 1659
1617 1668
1617 1672
1617 1675
1617 1678
1617 1681
1617 1690
1617 1694
1617 1702
1617 1725
1617 1733
1617 1738
1617 1739
1617 1755
1617 1761
1617 1764
1617 1767
1617 1775
1617 1779
1617 1790
1617 1792
1617 1810
1617 1829
1617 1834
1617 1868
1617 1871
1617 1873
1617 1879
1617 1890
1617 1891
1617 1892
1617 1896
1617 1899
1617 1908
1617 1911
1617 1930
1617 1942
1617 1947
1617 1953
1617 1958
1617 1982
1617 1985
1617 1988
1617 1993
1617 1997
1618 1619
1618 1620
1618 1637
1618 1655
1618 1659
1618 1669
1618 1673
1618 1677
1618 1686
1618 1692
1618 1697
1618 1712
1618 1719
1618 1722
1618 1746
1618 1772
1618 1776
1618 1779
1618 1783
1618 1795
1618 1803
1618 1810
1618 1818
1618 1840
1618 1847
1618 1870
1618 1872
1618 1877
1618 1896
1618 1897
1618 1933
1618 1971
1619 1634
1619 1648
1619 1649
1619 1658
1619 1667
1619 1675
1619 1679
1619 1681
1619 1684
1619 1689
1619 1717
1619 1728
1619 1732
1619 1745
1619 1761
1619 1769
1619 1772
1619 1776
1619 1780
1619 1786
1619 1789
1619 1790
1619 1802
1619 1803
1619 1809
1619 1817
1619 1827
1619 1832
1619 1837
1619 1845
1619 1857
1619 1863
1619 1867
1619 1873
1619 1909
1619 1911
1619 1923
1619 1929
1619 1931
1619 1932
1619 1955
1619 1986
1620 1626
1620 1627
1620 1628
1620 1650
1620 1675
1620 1685
1620 1695
1620 1696
1620 1708
1620 1712
1620 1726
1620 1740
1620 1769
1620 1774
1620 1778
1620 1792
1620 1797
1620 1813
1620 1814
1620 1817
1620 1826
1620 1830
1620 1835
1620 1837
1620 1844
1620 1847
1620 1853
1620 1866
1620 1888
1620 1896
1620 1910
1620 1919
1620 1921
1620 1925
1620 1927
1620 1933
1620 1957
1620 1979
1620 1991
1620 1996
1621 1633
1621 1637
1621 1647
1621 1651
1621 1660
1621 1675
1621 1680
1621 1692
1621 1706
1621 1707
1621 1715
1621 1731
1621 1742
1621 1760
1621 1761
1621 1763
1621 1819
1621 1831
1621 1849
1621 1856
1621 1857
1621 1865
1621 1869
1621 1870
1621 1877
1621 1888
1621 1899
1621 1917
1621 1923
1621 1924
1621 1928
1621 1940
1621 1963
1621 1966
1621 1969
1621 1980
1621 1987
1621 1990
1621 1993
1621 1994
1621 1999
1622 1639
1622 1640
1622 1644
1622 1650
1622 1661
1622 1664
1622 1671
1622 1729
1622 1737
1622 1739
1622 1741
1622 1766
1622 1769
1622 1786
1622 1794
1622 1798
1622 1799
1622 1801
1622 1805
1622 1815
1622 1821
1622 1841
1622 1845
1622 1855
1622 1859
1622 1861
1622 1872
1622 1880
1622 1888
1622 1909
1622 1923
1622 1927
1622 1932
1622 1936
1622 1948
1622 1952
1622 1981
1622 1995
1622 1999
1623 1630
1623 1676
1623 1680
1623 1686
1623 1693
1623 1696
1623 1702
1623 1703
1623 1704
1623 1735
1623 1741
1623 1746
1623 1747
1623 1764
1623 1779
1623 1785
1623 1791
1623 1792
1623 1798
1623 1800
1623 1801
1623 1820
1623 1834
1623 1840
1623 1851
1623 1858
1623 1873
1623 1904
1623 1917
1623 1918
1623 1925
1623 1933
1623 1935
1623 1941
1623 1951
1623 1954
1623 1959
1623 1963
1623 1965
1623 1968
1623 1972
1624 1627
1624 1643
1624 1645
1624 1649
1624 1656
1624 1660
1624 1663
1624 1681
1624 1682
1624 1683
1624 1701
1624 1723
1624 1748
1624 1752
1624 1754
1624 1757
1624 1792
1624 1797
1624 1802
1624 1815
1624 1827
1624 1832
1624 1847
1624 1863
1624 1866
1624 1914
1624 1916
1624 1929
1624 1933
1624 1938
1624 1951
1624 1965
1624 1972
1624 1976
1624 1984
1624 1990
1624 1996
1624 1997
1625 1643
1625 1649
1625 1652
1625 1670
1625 1673
1625 1696
1625 1748
1625 1749
1625 1771
1625 1773
1625 1777
1625 1784
1625 1808
1625 1827
1625 1843
1625 1855
1625 1869
1625 1881
1625 1892
1625 1895
1625 1898
1625 1900
1625 1912
1625 1923
1625 1933
1625 1940
1625 1942
1625 1947
1625 1956
1625 1980
1625 1983
1626 1628
1626 1630
1626 1635
1626 1638
1626 1648
1626 1662
1626 1671
1626 1677
1626 1684
1626 1687
1626 1710
1626 1713
1626 1715
1626 1718
1626 1738
1626 1739
1626 1747
1626 1755
1626 1757
1626 1771
1626 1773
1626 1777
1626 1795
1626 1797
1626 1805
1626 1812
1626 1832
1626 1866
1626 1879
1626 1881
1626 1884
1626 1890
1626 1906
1626 1918
1626 1921
1626 1940
1626 1954
1626 1970
1626 1971
1626 1984
1626 1986
1626 1988
1626 1989
1627 1638
1627 1657
1627 1660
1627 1672
1627 1673
1627 1676
1627 1678
1627 1682
1627 1699
1627 1719
1627 1727
1627 1733
1627 1744
1627 1757
1627 1759
1627 1764
1627 1765
1627 1778
1627 1795
1627 1800
1627 1805
1627 1828
1627 1830
1627 1855
1627 1875
1627 1880
1627 1881
1627 1916
1627 1952
1627 1955
1627 1967
1627 1968
1627 1971
1627 1979
1628 1635
1628 1646
1628 1650
1628 1662
1628 1699
1628 1719
1628 1721
1628 1724
1628 1747
1628 1750
1628 1751
1628 1780
1628 1798
1628 1801
1628 1803
1628 1818
1628 1828
1628 1833
1628 1841
1628 1845
1628 1865
1628 1910
1628 1923
1628 1932
1628 1940
1628 1941
1628 1943
1628 1969
1628 1972
1628 1991
1629 1635
1629 1639
1629 1640
1629 1643
1629 1646
1629 1651
1629 1654
1629 1666
1629 1670
1629 1677
1629 1686
1629 1701
1629 1704
1629 1718
1629 1726
1629 1731
1629 1733
1629 1734
1629 1747
1629 1795
1629 1810
1629 1812
1629 1817
1629 1827
1629 1838
1629 1842
1629 1844
1629 1861
1629 1868
1629 1870
1629 1871
1629 1874
1629 1888
1629 1890
1629 1894
1629 1946
1629 1957
1629 1958
1629 1974
1629 1987
1629 1991
1630 1640
1630 1649
1630 1686
1630 1689
1630 1696
1630 1698
1630 1715
1630 1738
1630 1741
1630 1748
1630 1752
1630 1778
1630 1787
1630 1796
1630 1836
1630 1838
1630 1873
1630 1877
1630 1884
1630 1889
1630 1909
1630 1910
1630 1911
1630 1919
1630 1921
1630 1925
1630 1928
1630 1932
1630 1936
1630 1938
1630 1941
1630 1948
1630 1998
1631 1659
1631 1663
1631 1674
1631 1675
1631 1692
1631 1696
1631 1698
1631 1705
1631 1708
1631 1716
1631 1723
1631 1724
1631 1729
1631 1732
1631 1740
1631 1764
1631 1780
1631 1802
1631 1817
1631 1825
1631 1826
1631 1832
1631 1836
1631 1854
1631 1871
1631 1886
1631 1896
1631 1897
1631 1899
1631 1902
1631 1913
1631 1917
1631 1932
1631 1933
1631 1962
1631 1978
1631 1982
1631 1994
1632 1640
1632 1651
1632 1669
1632 1679
1632 1692
1632 1697
1632 1700
1632 1704
1632 1709
1632 1723
1632 1736
1632 1738
1632 1747
1632 1763
1632 1767
1632 1769
1632 1770
1632 1771
1632 1788
1632 1793
1632 1808
1632 1837
1632 1847
1632 1874
1632 1880
1632 1886
1632 1887
1632 1889
1632 1890
1632 1906
1632 1911
1632 1923
1632 1936
1632 1941
1632 1950
1632 1957
1632 1971
1632 1972
1632 1978
1632 1983
1632 1987
1632 1992
1632 1994
1632 1998
1632 1999
1633 1636
1633 1671
1633 1681
1633 1714
1633 1727
1633 1740
1633 1750
1633 1753
1633 1780
1633 1781
1633 1785
1633 1789
1633 1797
1633 1806
1633 1816
1633 1825
1633 1831
1633 1836
1633 1851
1633 1857
1633 1862
1633 1871
1633 1876
1633 1880
1633 1895
1633 1896
1633 1902
1633 1913
1633 1940
1633 1941
1633 1956
1633 1957
1633 1977
1633 1978
1634 1643
1634 1670
1634 1674
1634 1691
1634 1715
1634 1728
1634 1774
1634 1790
1634 1797
1634 1804
1634 1810
1634 1819
1634 1823
1634 1832
1634 1849
1634 1854
1634 1856
1634 1857
1634 1861
1634 1869
1634 1875
1634 1878
1634 1890
1634 1909
1634 1911
1634 1912
1634 1935
1634 1940
1634 1952
1634 1963
1634 1982
1634 1984
1634 1990
1634 1994
1635 1641
1635 1655
1635 1658
1635 1660
1635 1676
1635 1678
1635 1697
1635 1717
1635 1741
1635 1747
1635 1749
1635 1792
1635 1797
1635 1803
1635 1804
1635 1814
1635 1819
1635 1830
1635 1842
1635 1845
1635 1847
1635 1864
1635 1869
1635 1877
1635 1909
1635 1924
1635 1932
1635 1939
1635 1941
1635 1942
1635 1945
1635 1955
1635 1962
1635 1964
1635 1965
1635 1971
1635 1972
1635 1984
1635 1991
1636 1670
1636 1683
1636 1684
1636 1689
1636 1702
1636 1709
1636 1716
1636 1725
1636 1733
1636 1755
1636 1759
1636 1782
1636 1809
1636 1812
1636 1814
1636 1816
1636 1825
1636 1830
1636 1851
1636 1889
1636 1893
1636 1900
1636 1915
1636 1917
1636 1921
1636 1925
1636 1926
1636 1930
1636 1943
1636 1961
1636 1974
1636 1977
1636 1981
1636 1996
1637 1644
1637 1665
1637 1674
1637 1720
1637 1730
1637 1732
1637 1746
1637 1753
1637 1754
1637 1765
1637 1784
1637 1826
1637 1846
1637 1857
1637 1866
1637 1868
1637 1877
1637 1880
1637 1882
1637 1906
1637 1937
1637 1966
1637 1972
1637 1986
1637 1996
1638 1668
1638 1677
1638 1683
1638 1685
1638 1704
1638 1745
1638 1756
1638 1763
1638 1772
1638 1777
1638 1778
1638 1784
1638 1786
1638 1803
1638 1816
1638 1822
1638 1826
1638 1829
1638 1834
1638 1847
1638 1861
1638 1866
1638 1888
1638 1906
1638 1912
1638 1919
1638 1925
1638 1929
1638 1945
1638 1950
1638 1954
1638 1979
1638 1989
1638 1990
1638 1997
1639 1644
1639 1654
1639 1663
1639 1667
1639 1670
1639 1676
1639 1680
1639 1700
1639 1708
1639 1729
1639 1730
1639 1731
1639 1737
1639 1739
1639 1748
1639 1764
1639 1782
1639 1794
1639 1799
1639 1801
1639 1803
1639 1806
1639 1807
1639 1808
1639 1814
1639 1815
1639 1820
1639 1828
1639 1829
1639 1835
1639 1843
1639 1848
1639 1871
1639 1873
1639 1883
1639 1891
1639 1922
1639 1940
1639 1944
1639 1953
1639 1990
1639 1993
1640 1641
1640 1644
1640 1648
1640 1661
1640 1662
1640 1672
1640 1682
1640 1711
1640 1717
1640 1734
1640 1745
1640 1751
1640 1761
1640 1765
1640 1767
1640 1796
1640 1822
1640 1827
1640 1838
1640 1850
1640 1865
1640 1867
1640 1872
1640 1876
1640 1877
1640 1878
1640 1886
1640 1903
1640 1921
1640 1972
1640 1977
1640 1986
1641 1648
1641 1657
1641 1663
1641 1665
1641 1667
1641 1670
1641 1695
1641 1701
1641 1729
1641 1747
1641 1769
1641 1774
1641 1783
1641 1791
1641 1802
1641 1808
1641 1822
1641 1826
1641 1849
1641 1855
1641 1856
1641 1863
1641 1869
1641 1878
1641 1882
1641 1885
1641 1892
1641 1923
1641 1926
1641 1928
1641 1962
1641 1977
1641 1981
1641 1996
1642 1648
1642 1657
1642 1663
1642 1676
1642 1685
1642 1699
1642 1705
1642 1725
1642 1729
1642 1733
1642 1753
1642 1755
1642 1772
1642 1789
1642 1792
1642 1806
1642 1809
1642 1816
1642 1823
1642 1863
1642 1874
1642 1881
1642 1883
1642 1898
1642 1902
1642 1919
1642 1935
1642 1940
1642 1952
1642 1965
1642 1979
1642 1993
1643 1652
1643 1673
1643 1674
1643 1695
1643 1702
1643 1705
1643 1735
1643 1739
1643 1755
1643 1775
1643 1782
1643 1784
1643 1793
1643 1801
1643 1806
1643 1811
1643 1818
1643 1825
1643 1827
1643 1830
1643 1834
1643 1845
1643 1847
1643 1857
1643 1864
1643 1867
1643 1871
1643 1878
1643 1888
1643 1891
1643 1894
1643 1909
1643 1919
1643 1929
1643 1930
1643 1933
1643 1939
1643 1962
1643 1969
1643 1972
1643 1976
1643 1978
1643 1979
1643 1992
1643 1993
1643 1998
1643 1999
1644 1661
1644 1669
1644 1697
1644 1699
1644 1705
1644 1714
1644 1726
1644 1727
1644 1728
1644 1756
1644 1757
1644 1759
1644 1762
1644 1770
1644 1805
1644 1807
1644 1814
1644 1828
1644 1835
1644 1837
1644 1840
1644 1850
1644 1882
1644 1896
1644 1897
1644 1899
1644 1908
1644 1918
1644 1924
1644 1975
1645 1651
1645 1653
1645 1654
1645 1670
1645 1677
1645 1692
1645 1695
1645 1704
1645 1715
1645 1719
1645 1722
1645 1725
1645 1747
1645 1750
1645 1756
1645 1767
1645 1793
1645 1798
1645 1799
1645 1827
1645 1832
1645 1833
1645 1843
1645 1845
1645 1863
1645 1869
1645 1875
1645 1890
1645 1899
1645 1903
1645 1919
1645 1925
1645 1934
1645 1945
1645 1961
1645 1979
1646 1672
1646 1674
1646 1680
1646 1682
1646 1689
1646 1711
1646 1730
1646 1737
1646 1741
1646 1752
1646 1759
1646 1780
1646 1807
1646 1841
1646 1849
1646 1852
1646 1857
1646 1859
1646 1866
1646 1883
1646 1903
1646 1907
1646 1915
1646 1920
1646 1933
1646 1967
1646 1972
1646 1975
1646 1982
1646 1994
1646 1995
1647 1651
1647 1653
1647 1678
1647 1686
1647 1693
1647 1707
1647 1712
1647 1716
1647 1741
1647 1746
1647 1749
1647 1750
1647 1756
1647 1767
1647 1776
1647 1779
1647 1782
1647 1786
1647 1790
1647 1793
1647 1805
1647 1807
1647 1809
1647 1828
1647 1834
1647 1846
1647 1867
1647 1868
1647 1878
1647 1882
1647 1892
1647 1899
1647 1903
1647 1920
1647 1924
1647 1936
1647 1947
1647 1952
1647 1959
1647 1960
1647 1972
1647 1989
1647 1991
1648 1656
1648 1671
1648 1675
1648 1689
1648 1699
1648 1708
1648 1718
1648 1753
1648 1759
1648 1772
1648 1775
1648 1779
1648 1789
1648 1790
1648 1810
1648 1831
1648 1834
1648 1849
1648 1857
1648 1867
1648 1870
1648 1872
1648 1889
1648 1890
1648 1933
1648 1973
1648 1979
1648 1985
1648 1996
1649 1655
1649 1662
1649 1669
1649 1682
1649 1683
1649 1701
1649 1708
1649 1715
1649 1723
1649 1724
1649 1741
1649 1743
1649 1745
1649 1755
1649 1758
1649 1768
1649 1783
1649 1785
1649 1786
1649 1792
1649 1800
1649 1811
1649 1831
1649 1832
1649 1840
1649 1843
1649 1869
1649 1883
1649 1899
1649 1918
1649 1924
1649 1965
1649 1966
1649 1970
1649 1979
1649 1993
1649 1999
1650 1684
1650 1686
1650 1689
1650 1728
1650 1783
1650 1785
1650 1795
1650 1797
1650 1805
1650 1813
1650 1822
1650 1854
1650 1858
1650 1863
1650 1873
1650 1880
1650 1891
1650 1906
1650 1915
1650 1917
1650 1918
1650 1963
1650 1972
1650 1973
1650 1975
1650 1977
1650 1985
1650 1991
1651 1654
1651 1658
1651 1660
1651 1699
1651 1711
1651 1721
1651 1722
1651 1734
1651 1753
1651 1760
1651 1766
1651 1767
1651 1768
1651 1803
1651 1809
1651 1817
1651 1832
1651 1847
1651 1854
1651 1855
1651 1861
1651 1864
1651 1866
1651 1872
1651 1875
1651 1877
1651 1885
1651 1888
1651 1892
1651 1901
1651 1902
1651 1907
1651 1919
1651 1923
1651 1929
1651 1931
1651 1945
1651 1946
1651 1957
1651 1963
1651 1965
1652 1654
1652 1655
1652 1664
1652 1670
1652 1691
1652 1695
1652 1701
1652 1715
1652 1720
1652 1729
1652 1731
1652 1746
1652 1755
1652 1779
1652 1783
1652 1790
1652 1801
1652 1803
1652 1813
1652 1846
1652 1848
1652 1857
1652 1863
1652 1896
1652 1900
1652 1903
1652 1905
1652 1915
1652 1920
1652 1928
1652 1931
1652 1956
1652 1997
1653 1671
1653 1672
1653 1685
1653 1691
1653 1694
1653 1707
1653 1717
1653 1732
1653 1739
1653 1754
1653 1757
1653 1766
1653 1770
1653 1778
1653 1809
1653 1830
1653 1833
1653 1845
1653 1865
1653 1872
1653 1883
1653 1905
1653 1931
1653 1935
1653 1954
1653 1962
1653 1966
1653 1979
1653 1980
1654 1655
1654 1663
1654 1691
1654 1710
1654 1717
1654 1719
1654 1732
1654 1739
1654 1745
1654 1748
1654 1762
1654 1771
1654 1773
1654 1775
1654 1786
1654 1803
1654 1821
1654 1827
1654 1850
1654 1852
1654 1858
1654 1877
1654 1894
1654 1900
1654 1906
1654 1926
1654 1940
1654 1943
1654 1953
1654 1962
1654 1987
1654 1990
1654 1994
1654 1998
1655 1661
1655 1682
1655 1706
1655 1707
1655 1709
1655 1713
1655 1727
1655 1733
1655 1734
1655 1735
1655 1745
1655 1754
1655 1765
1655 1792
1655 1810
1655 1836
1655 1846
1655 1852
1655 1880
1655 1881
1655 1897
1655 1907
1655 1918
1655 1942
1655 1955
1655 1958
1655 1961
1655 1977
1655 1983
1655 1984
1655 1995
1655 1996
1656 1669
1656 1681
1656 1695
1656 1747
1656 1748
1656 1750
1656 1759
1656 1764
1656 1767
1656 1784
1656 1791
1656 1794
1656 1808
1656 1810
1656 1817
1656 1828
1656 1833
1656 1870
1656 1873
1656 1878
1656 1886
1656 1887
1656 1895
1656 1899
1656 1903
1656 1941
1656 1947
1656 1953
1656 1957
1656 1961
1656 1982
1656 1996
1656 1997
1657 1664
1657 1667
1657 1672
1657 1682
1657 1686
1657 1692
1657 1693
1657 1718
1657 1725
1657 1763
1657 1765
1657 1767
1657 1768
1657 1794
1657 1798
1657 1799
1657 1858
1657 1862
1657 1870
1657 1914
1657 1931
1657 1933
1657 1938
1657 1944
1657 1950
1657 1957
1657 1961
1657 1964
1657 1966
1657 1977
1657 1989
1657 1991
1657 1996
1658 1667
1658 1685
1658 1694
1658 1713
1658 1728
1658 1739
1658 1745
1658 1751
1658 1753
1658 1759
1658 1769
1658 1771
1658 1788
1658 1792
1658 1795
1658 1803
1658 1807
1658 1811
1658 1824
1658 1828
1658 1844
1658 1847
1658 1859
1658 1869
1658 1880
1658 1884
1658 1893
1658 1904
1658 1917
1658 1922
1658 1937
1658 1940
1658 1942
1658 1949
1658 1958
1658 1967
1659 1667
1659 1692
1659 1695
1659 1702
1659 1708
1659 1719
1659 1727
1659 1728
1659 1731
1659 1732
1659 1743
1659 1745
1659 1807
1659 1825
1659 1829
1659 1833
1659 1841
1659 1862
1659 1867
1659 1872
1659 1896
1659 1907
1659 1915
1659 1918
1659 1921
1659 1927
1659 1929
1659 1933
1659 1943
1659 1944
1659 1964
1659 1966
1659 1982
1659 1983
1659 1998
1660 1661
1660 1668
1660 1670
1660 1682
1660 1683
1660 1684
1660 1697
1660 1701
1660 1721
1660 1723
1660 1741
1660 1759
1660 1778
1660 1797
1660 1798
1660 1802
1660 1815
1660 1822
1660 1824
1660 1827
1660 1832
1660 1833
1660 1835
1660 1859
1660 1865
1660 1867
1660 1878
1660 1879
1660 1880
1660 1881
1660 1882
1660 1902
1660 1917
1660 1919
1660 1941
1660 1961
1660 1975
1660 1981
1660 1985
1660 1998
1661 1663
1661 1664
1661 1678
1661 1685
1661 1688
1661 1691
1661 1707
1661 1743
1661 1758
1661 1762
1661 1776
1661 1780
1661 1790
1661 1798
1661 1830
1661 1832
1661 1842
1661 1855
1661 1859
1661 1866
1661 1899
1661 1900
1661 1930
1661 1935
1661 1936
1661 1955
1661 1968
1661 1970
1661 1974
1661 1996
1662 1676
1662 1681
1662 1684
1662 1700
1662 1759
1662 1761
1662 1771
1662 1774
1662 1785
1662 1813
1662 1817
1662 1837
1662 1852
1662 1854
1662 1871
1662 1881
1662 1882
1662 1883
1662 1886
1662 1893
1662 1906
1662 1915
1662 1937
1662 1951
1662 1956
1662 1961
1662 1980
1662 1983
1662 1985
1662 1994
1662 1997
1663 1671
1663 1677
1663 1690
1663 1714
1663 1717
1663 1727
1663 1731
1663 1734
1663 1739
1663 1759
1663 1761
1663 1766
1663 1771
1663 1785
1663 1803
1663 1807
1663 1814
1663 1828
1663 1873
1663 1879
1663 1888
1663 1894
1663 1897
1663 1907
1663 1915
1663 1917
1663 1919
1663 1936
1663 1955
1663 1962
1663 1971
1663 1983
1663 1986
1663 1994
1663 1996
1664 1671
1664 1673
1664 1674
1664 1684
1664 1701
1664 1714
1664 1717
1664 1719
1664 1731
1664 1748
1664 1757
1664 1761
1664 1768
1664 1782
1664 1790
1664 1797
1664 1807
1664 1814
1664 1817
1664 1841
1664 1857
1664 1859
1664 1860
1664 1861
1664 1873
1664 1901
1664 1902
1664 1904
1664 1909
1664 1914
1664 1923
1664 1925
1664 1930
1664 1937
1664 1939
1664 1965
1664 1988
1664 1989
1665 1680
1665 1689
1665 1702
1665 1716
1665 1739
1665 1741
1665 1752
1665 1756
1665 1770
1665 1771
1665 1772
1665 1789
1665 1797
1665 1812
1665 1837
1665 1842
1665 1844
1665 1851
1665 1857
1665 1870
1665 1871
1665 1874
1665 1880
1665 1881
1665 1883
1665 1888
1665 1892
1665 1896
1665 1912
1665 1915
1665 1918
1665 1934
1665 1945
1665 1952
1665 1965
1666 1671
1666 1677
1666 1679
1666 1692
1666 1706
1666 1715
1666 1717
1666 1718
1666 1724
1666 1732
1666 1757
1666 1771
1666 1777
1666 1799
1666 1800
1666 1815
1666 1836
1666 1848
1666 1864
1666 1876
1666 1885
1666 1888
1666 1890
1666 1904
1666 1915
1666 1918
1666 1936
1666 1940
1666 1942
1666 1949
1666 1952
1666 1953
1666 1954
1666 1968
1667 1682
1667 1715
1667 1724
1667 1726
1667 1748
1667 1752
1667 1755
1667 1760
1667 1764
1667 1775
1667 1793
1667 1803
1667 1805
1667 1815
1667 1832
1667 1851
1667 1861
1667 1869
1667 1874
1667 1882
1667 1903
1667 1943
1667 1946
1667 1948
1667 1951
1667 1952
1667 1962
1667 1964
1667 1970
1667 1976
1667 1980
1667 1981
1667 1989
1668 1676
1668 1692
1668 1696
1668 1706
1668 1720
1668 1782
1668 1824
1668 1826
1668 1827
1668 1828
1668 1830
1668 1832
1668 1864
1668 1867
1668 1874
1668 1882
1668 1884
1668 1894
1668 1924
1668 1934
1668 1951
1668 1956
1668 1961
1668 1968
1668 1991
1668 1999
1669 1670
1669 1675
1669 1681
1669 1688
1669 1698
1669 1715
1669 1730
1669 1735
1669 1746
1669 1759
1669 1765
1669 1770
1669 1789
1669 1838
1669 1864
1669 1877
1669 1918
1669 1935
1669 1941
1669 1942
1669 1950
1669 1958
1669 1963
1669 1967
1669 1971
1669 1976
1669 1980
1669 1981
1669 1985
1669 1997
1670 1680
1670 1681
1670 1698
1670 1700
1670 1707
1670 1710
1670 1740
1670 1752
1670 1754
1670 1757
1670 1762
1670 1765
1670 1796
1670 1797
1670 1799
1670 1804
1670 1826
1670 1837
1670 1851
1670 1865
1670 1866
1670 1877
1670 1881
1670 1890
1670 1895
1670 1900
1670 1919
1670 1940
1670 1946
1670 1949
1670 1951
1670 1976
1670 1981
1670 1993
1671 1686
1671 1695
1671 1710
1671 1726
1671 1738
1671 1762
1671 1767
1671 1805
1671 1823
1671 1831
1671 1832
1671 1844
1671 1849
1671 1855
1671 1863
1671 1866
1671 1873
1671 1875
1671 1876
1671 1909
1671 1915
1671 1919
1671 1920
1671 1938
1671 1939
1671 1946
1671 1951
1671 1954
1671 1961
1671 1972
1671 1983
1671 1984
1672 1678
1672 1700
1672 1708
1672 1718
1672 1753
1672 1755
1672 1760
1672 1764
1672 1781
1672 1790
1672 1804
1672 1831
1672 1834
1672 1850
1672 1873
1672 1876
1672 1880
1672 1881
1672 1882
1672 1889
1672 1896
1672 1897
1672 1902
1672 1921
1672 1932
1672 1939
1672 1944
1672 1956
1672 1957
1672 1970
1672 1989
1672 1992
1673 1682
1673 1684
1673 1694
1673 1716
1673 1724
1673 1741
1673 1768
1673 1769
1673 1781
1673 1801
1673 1813
1673 1819
1673 1824
1673 1853
1673 1867
1673 1877
1673 1886
1673 1887
1673 1905
1673 1906
1673 1909
1673 1950
1673 1953
1673 1961
1673 1967
1673 1968
1673 1971
1673 1974
1673 1981
1674 1678
1674 1682
1674 1688
1674 1691
1674 1692
1674 1709
1674 1714
1674 1717
1674 1731
1674 1732
1674 1747
1674 1778
1674 1779
1674 1786
1674 1787
1674 1791
1674 1798
1674 1825
1674 1828
1674 1837
1674 1839
1674 1846
1674 1847
1674 1857
1674 1858
1674 1862
1674 1865
1674 1891
1674 1893
1674 1895
1674 1896
1674 1930
1674 1935
1674 1972
1674 1973
1674 1981
1674 1983
1674 1996
1674 1999
1675 1676
1675 1682
1675 1686
1675 1692
1675 1696
1675 1699
1675 1712
1675 1733
1675 1742
1675 1754
1675 1768
1675 1769
1675 1781
1675 1789
1675 1800
1675 1813
1675 1824
1675 1827
1675 1830
1675 1838
1675 1846
1675 1868
1675 1873
1675 1878
1675 1907
1675 1921
1675 1936
1675 1956
1675 1961
1675 1971
1675 1972
1675 1974
1675 1991
1675 1998
1676 1692
1676 1693
1676 1700
1676 1719
1676 1720
1676 1729
1676 1740
1676 1750
1676 1770
1676 1789
1676 1790
1676 1808
1676 1812
1676 1819
1676 1820
1676 1821
1676 1824
1676 1826
1676 1859
1676 1863
1676 1868
1676 1869
1676 1872
1676 1874
1676 1886
1676 1914
1676 1924
1676 1934
1676 1954
1676 1967
1676 1975
1677 1685
1677 1687
1677 1690
1677 1693
1677 1697
1677 1733
1677 1744
1677 1760
1677 1761
1677 1787
1677 1789
1677 1796
1677 1815
1677 1823
1677 1833
1677 1860
1677 1864
1677 1869
1677 1871
1677 1894
1677 1896
1677 1920
1677 1922
1677 1923
1677 1924
1677 1926
1677 1942
1677 1944
1677 1947
1677 1968
1677 1994
1678 1684
1678 1696
1678 1701
1678 1702
1678 1703
1678 1705
1678 1740
1678 1742
1678 1743
1678 1747
1678 1760
1678 1761
1678 1762
1678 1771
1678 1790
1678 1795
1678 1801
1678 1818
1678 1820
1678 1827
1678 1853
1678 1856
1678 1867
1678 1868
1678 1869
1678 1883
1678 1906
1678 1911
1678 1914
1678 1917
1678 1919
1678 1931
1678 1937
1678 1939
1678 1946
1678 1947
1678 1953
1678 1963
1678 1982
1678 1987
1679 1694
1679 1696
1679 1698
1679 1699
1679 1700
1679 1706
1679 1715
1679 1718
1679 1732
1679 1737
1679 1775
1679 1784
1679 1796
1679 1799
1679 1809
1679 1826
1679 1860
1679 1861
1679 1879
1679 1881
1679 1900
1679 1908
1679 1923
1679 1932
1679 1951
1679 1956
1679 1958
1679 1959
1679 1981
1679 1983
1679 1992
1680 1681
1680 1700
1680 1705
1680 1709
1680 1730
1680 1747
1680 1798
1680 1805
1680 1820
1680 1821
1680 1828
1680 1837
1680 1843
1680 1859
1680 1878
1680 1880
1680 1885
1680 1886
1680 1894
1680 1914
1680 1921
1680 1925
1680 1946
1680 1961
1680 1988
1680 1995
1681 1686
1681 1698
1681 1699
1681 1707
1681 1708
1681 1709
1681 1719
1681 1736
1681 1739
1681 1740
1681 1741
1681 1783
1681 1784
1681 1793
1681 1800
1681 1834
1681 1835
1681 1888
1681 1898
1681 1900
1681 1918
1681 1936
1681 1939
1681 1979
1681 1993
1682 1683
1682 1695
1682 1697
1682 1702
1682 1703
1682 1707
1682 1710
1682 1717
1682 1718
1682 1725
1682 1766
1682 1774
1682 1784
1682 1786
1682 1790
1682 1799
1682 1808
1682 1811
1682 1835
1682 1839
1682 1844
1682 1853
1682 1854
1682 1876
1682 1882
1682 1890
1682 1924
1682 1947
1682 1951
1682 1954
1682 1961
1682 1966
1682 1990
1683 1688
1683 1699
1683 1721
1683 1722
1683 1724
1683 1732
1683 1742
1683 1743
1683 1764
1683 1766
1683 1768
1683 1780
1683 1796
1683 1821
1683 1830
1683 1834
1683 1835
1683 1839
1683 1864
1683 1871
1683 1882
1683 1898
1683 1910
1683 1915
1683 1931
1683 1937
1683 1938
1683 1947
1683 1958
1683 1960
1683 1979
1683 1983
1683 1993
1684 1686
1684 1706
1684 1714
1684 1716
1684 1728
1684 1737
1684 1746
1684 1751
1684 1771
1684 1781
1684 1793
1684 1794
1684 1810
1684 1824
1684 1834
1684 1845
1684 1854
1684 1868
1684 1879
1684 1882
1684 1912
1684 1920
1684 1921
1684 1937
1684 1942
1684 1950
1684 1956
1684 1969
1684 1979
1684 1989
1685 1693
1685 1706
1685 1707
1685 1718
1685 1729
1685 1736
1685 1738
1685 1753
1685 1767
1685 1771
1685 1772
1685 1775
1685 1797
1685 1803
1685 1806
1685 1810
1685 1812
1685 1822
1685 1841
1685 1845
1685 1849
1685 1855
1685 1859
1685 1883
1685 1884
1685 1901
1685 1909
1685 1919
1685 1927
1685 1934
1685 1935
1685 1951
1685 1954
1685 1967
1685 1977
1685 1992
1685 1999
1686 1689
1686 1729
1686 1752
1686 1760
1686 1763
1686 1765
1686 1766
1686 1767
1686 1770
1686 1785
1686 1800
1686 1808
1686 1810
1686 1814
1686 1819
1686 1826
1686 1834
1686 1838
1686 1853
1686 1854
1686 1859
1686 1892
1686 1898
1686 1899
1686 1908
1686 1909
1686 1915
1686 1919
1686 1925
1686 1928
1686 1936
1686 1941
1686 1944
1686 1948
1687 1707
1687 1712
1687 1715
1687 1737
1687 1741
1687 1776
1687 1782
1687 1783
1687 1792
1687 1795
1687 1841
1687 1850
1687 1861
1687 1870
1687 1893
1687 1913
1687 1915
1687 1920
1687 1925
1687 1936
1687 1951
1687 1952
1687 1964
1687 1971
1687 1973
1687 1990
1687 1998
1688 1700
1688 1701
1688 1710
1688 1713
1688 1752
1688 1755
1688 1763
1688 1772
1688 1776
1688 1777
1688 1780
1688 1788
1688 1799
1688 1800
1688 1801
1688 1814
1688 1827
1688 1830
1688 1834
1688 1894
1688 1896
1688 1898
1688 1912
1688 1938
1688 1941
1688 1947
1688 1951
1688 1955
1688 1967
1688 1974
1688 1977
1688 1981
1688 1984
1688 1985
1688 1992
1689 1691
1689 1711
1689 1714
1689 1725
1689 1741
1689 1757
1689 1763
1689 1794
1689 1799
1689 1822
1689 1824
1689 1832
1689 1839
1689 1859
1689 1860
1689 1870
1689 1879
1689 1894
1689 1900
1689 1903
1689 1915
1689 1919
1689 1942
1689 1967
1689 1977
1689 1989
1690 1702
1690 1708
1690 1732
1690 1733
1690 1766
1690 1771
1690 1782
1690 1785
1690 1796
1690 1841
1690 1844
1690 1853
1690 1861
1690 1879
1690 1896
1690 1897
1690 1900
1690 1903
1690 1905
1690 1907
1690 1911
1690 1923
1690 1935
1690 1936
1690 1952
1690 1996
1691 1699
1691 1709
1691 1720
1691 1724
1691 1741
1691 1752
1691 1757
1691 1758
1691 1775
1691 1787
1691 1800
1691 1808
1691 1809
1691 1813
1691 1818
1691 1826
1691 1828
1691 1831
1691 1838
1691 1841
1691 1843
1691 1849
1691 1851
1691 1860
1691 1873
1691 1882
1691 1900
1691 1902
1691 1927
1691 1931
1691 1956
1691 1975
1691 1988
1692 1699
1692 1709
1692 1712
1692 1715
1692 1729
1692 1754
1692 1757
1692 1761
1692 1767
1692 1776
1692 1789
1692 1796
1692 1810
1692 1816
1692 1819
1692 1829
1692 1836
1692 1838
1692 1841
1692 1845
1692 1860
1692 1874
1692 1879
1692 1882
1692 1893
1692 1905
1692 1909
1692 1916
1692 1920
1692 1930
1692 1947
1692 1957
1692 1985
1692 1992
1693 1710
1693 1719
1693 1726
1693 1728
1693 1729
1693 1730
1693 1731
1693 1734
1693 1741
1693 1742
1693 1765
1693 1773
1693 1782
1693 1785
1693 1788
1693 1794
1693 1797
1693 1805
1693 1811
1693 1813
1693 1824
1693 1860
1693 1862
1693 1865
1693 1869
1693 1892
1693 1896
1693 1900
1693 1903
1693 1904
1693 1927
1693 1947
1693 1959
1693 1965
1693 1997
1694 1700
1694 1703
1694 1737
1694 1746
1694 1774
1694 1781
1694 1797
1694 1809
1694 1827
1694 1836
1694 1837
1694 1843
1694 1850
1694 1854
1694 1855
1694 1860
1694 1862
1694 1868
1694 1872
1694 1898
1694 1900
1694 1903
1694 1916
1694 1947
1694 1957
1694 1982
1694 1998
1695 1725
1695 1755
1695 1768
1695 1774
1695 1802
1695 1806
1695 1808
1695 1813
1695 1817
1695 1828
1695 1832
1695 1833
1695 1840
1695 1850
1695 1856
1695 1862
1695 1869
1695 1871
1695 1881
1695 1894
1695 1914
1695 1951
1695 1953
1695 1972
1695 1975
1695 1978
1695 1984
1695 1996
1696 1709
1696 1717
1696 1718
1696 1719
1696 1720
1696 1729
1696 1732
1696 1750
1696 1776
1696 1785
1696 1787
1696 1792
1696 1793
1696 1803
1696 1805
1696 1807
1696 1823
1696 1825
1696 1832
1696 1842
1696 1856
1696 1858
1696 1873
1696 1879
1696 1888
1696 1893
1696 1896
1696 1900
1696 1950
1696 1955
1696 1977
1697 1709
1697 1712
1697 1714
1697 1723
1697 1725
1697 1747
1697 1751
1697 1763
1697 1784
1697 1799
1697 1800
1697 1809
1697 1818
1697 1820
1697 1822
1697 1825
1697 1847
1697 1861
1697 1866
1697 1892
1697 1908
1697 1910
1697 1921
1697 1937
1697 1938
1697 1949
1697 1971
1697 1975
1697 1980
1697 1995
1698 1717
1698 1724
1698 1737
1698 1756
1698 1796
1698 1829
1698 1832
1698 1834
1698 1839
1698 1845
1698 1853
1698 1861
1698 1886
1698 1889
1698 1891
1698 1893
1698 1896
1698 1909
1698 1914
1698 1931
1698 1935
1698 1940
1698 1954
1698 1962
1698 1969
1698 1971
1698 1975
1698 1980
1698 1991
1698 1996
1698 1997
1699 1711
1699 1721
1699 1722
1699 1729
1699 1739
1699 1772
1699 1783
1699 1828
1699 1834
1699 1852
1699 1854
1699 1861
1699 1927
1699 1961
1699 1963
1699 1976
1699 1988
1699 1997
1700 1702
1700 1722
1700 1725
1700 1748
1700 1749
1700 1752
1700 1755
1700 1760
1700 1769
1700 1783
1700 1822
1700 1827
1700 1846
1700 1850
1700 1855
1700 1878
1700 1887
1700 1890
1700 1895
1700 1930
1700 1967
1700 1981
1700 1983
1700 1992
1700 1995
1700 1999
1701 1706
1701 1716
1701 1720
1701 1725
1701 1745
1701 1750
1701 1766
1701 1772
1701 1798
1701 1800
1701 1805
1701 1806
1701 1831
1701 1834
1701 1841
1701 1843
1701 1853
1701 1859
1701 1875
1701 1897
1701 1930
1701 1941
1701 1944
1701 1948
1701 1953
1701 1956
1701 1990
1701 1995
1702 1705
1702 1709
1702 1718
1702 1724
1702 1738
1702 1741
1702 1745
1702 1751
1702 1760
1702 1772
1702 1774
1702 1778
1702 1785
1702 1792
1702 1803
1702 1805
1702 1808
1702 1814
1702 1827
1702 1845
1702 1848
1702 1850
1702 1861
1702 1871
1702 1874
1702 1888
1702 1895
1702 1907
1702 1916
1702 1920
1702 1934
1702 1955
1702 1960
1702 1964
1702 1990
1702 1997
1703 1730
1703 1750
1703 1760
1703 1774
1703 1777
1703 1778
1703 1790
1703 1798
1703 1813
1703 1816
1703 1836
1703 1838
1703 1857
1703 1875
1703 1879
1703 1885
1703 1897
1703 1898
1703 1916
1703 1930
1703 1941
1703 1944
1703 1945
1703 1964
1703 1967
1703 1980
1703 1986
1703 1991
1704 1724
1704 1730
1704 1731
1704 1734
1704 1760
1704 1772
1704 1781
1704 1801
1704 1815
1704 1821
1704 1824
1704 1830
1704 1832
1704 1845
1704 1856
1704 1867
1704 1869
1704 1871
1704 1897
1704 1903
1704 1915
1704 1920
1704 1929
1704 1931
1704 1932
1704 1933
1704 1970
1704 1982
1704 1986
1705 1720
1705 1724
1705 1733
1705 1734
1705 1741
1705 1745
1705 1764
1705 1819
1705 1829
1705 1846
1705 1852
1705 1873
1705 1876
1705 1903
1705 1905
1705 1907
1705 1909
1705 1910
1705 1912
1705 1916
1705 1923
1705 1927
1705 1928
1705 1931
1705 1935
1705 1938
1705 1944
1705 1974
1706 1708
1706 1717
1706 1731
1706 1733
1706 1737
1706 1739
1706 1754
1706 1761
1706 1767
1706 1777
1706 1779
1706 1780
1706 1796
1706 1816
1706 1819
1706 1823
1706 1838
1706 1841
1706 1855
1706 1869
1706 1894
1706 1914
1706 1925
1706 1931
1706 1935
1706 1937
1706 1941
1706 1944
1706 1962
1706 1991
1706 1999
1707 1734
1707 1735
1707 1765
1707 1780
1707 1789
1707 1794
1707 1795
1707 1799
1707 1807
1707 1810
1707 1816
1707 1832
1707 1844
1707 1855
1707 1874
1707 1891
1707 1902
1707 1928
1707 1941
1707 1954
1707 1955
1707 1963
1707 1968
1707 1996
1708 1710
1708 1712
1708 1722
1708 1724
1708 1740
1708 1745
1708 1772
1708 1775
1708 1788
1708 1791
1708 1804
1708 1806
1708 1823
1708 1843
1708 1848
1708 1855
1708 1862
1708 1868
1708 1890
1708 1897
1708 1900
1708 1908
1708 1909
1708 1911
1708 1922
1708 1944
1708 1948
1708 1979
1708 1981
1708 1983
1708 1999
1709 1713
1709 1720
1709 1723
1709 1728
1709 1749
1709 1752
1709 1757
1709 1762
1709 1763
1709 1771
1709 1772
1709 1777
1709 1791
1709 1797
1709 1824
1709 1828
1709 1829
1709 1834
1709 1846
1709 1849
1709 1864
1709 1867
1709 1875
1709 1876
1709 1894
1709 1909
1709 1911
1709 1920
1709 1931
1709 1935
1709 1940
1709 1950
1709 1964
1709 1971
1709 1986
1709 1989
1709 1996
1710 1713
1710 1714
1710 1723
1710 1727
1710 1736
1710 1755
1710 1763
1710 1767
1710 1773
1710 1791
1710 1805
1710 1842
1710 1860
1710 1883
1710 1888
1710 1889
1710 1902
1710 1915
1710 1918
1710 1931
1710 1932
1710 1935
1710 1944
1710 1947
1710 1956
1710 1962
1710 1974
1710 1988
1711 1732
1711 1734
1711 1737
1711 1766
1711 1768
1711 1814
1711 1819
1711 1851
1711 1855
1711 1868
1711 1879
1711 1882
1711 1896
1711 1908
1711 1921
1711 1951
1711 1954
1711 1964
1711 1966
1711 1977
1711 1992
1712 1728
1712 1742
1712 1744
1712 1752
1712 1771
1712 1774
1712 1796
1712 1802
1712 1810
1712 1820
1712 1823
1712 1837
1712 1850
1712 1854
1712 1862
1712 1870
1712 1871
1712 1882
1712 1883
1712 1888
1712 1897
1712 1906
1712 1913
1712 1915
1712 1922
1712 1933
1712 1934
1712 1942
1712 1952
1712 1956
1712 1964
1712 1966
1712 1996
1713 1723
1713 1735
1713 1738
1713 1739
1713 1740
1713 1773
1713 1785
1713 1789
1713 1793
1713 1812
1713 1817
1713 1833
1713 1842
1713 1846
1713 1854
1713 1857
1713 1859
1713 1865
1713 1878
1713 1886
1713 1888
1713 1890
1713 1894
1713 1895
1713 1896
1713 1899
1713 1910
1713 1914
1713 1928
1713 1934
1713 1969
1713 1973
1713 1976
1713 1987
1713 1996
1713 1997
1713 1999
1714 1717
1714 1726
1714 1727
1714 1730
1714 1734
1714 1743
1714 1760
1714 1763
1714 1764
1714 1765
1714 1767
1714 1769
1714 1777
1714 1790
1714 1791
1714 1792
1714 1794
1714 1803
1714 1804
1714 1817
1714 1841
1714 1845
1714 1858
1714 1874
1714 1876
1714 1896
1714 1906
1714 1926
1714 1936
1714 1949
1714 1959
1714 1965
1714 1967
1714 1970
1714 1972
1714 1978
1714 1994
1714 1995
1714 1997
1715 1732
1715 1733
1715 1735
1715 1748
1715 1750
1715 1752
1715 1753
1715 1762
1715 1764
1715 1768
1715 1782
1715 1784
1715 1788
1715 1816
1715 1826
1715 1827
1715 1832
1715 1835
1715 1837
1715 1848
1715 1865
1715 1882
1715 1883
1715 1890
1715 1906
1715 1919
1715 1923
1715 1945
1715 1950
1715 1951
1715 1953
1715 1956
1715 1964
1715 1972
1715 1993
1716 1722
1716 1725
1716 1730
1716 1734
1716 1738
1716 1746
1716 1752
1716 1755
1716 1766
1716 1797
1716 1804
1716 1820
1716 1828
1716 1839
1716 1841
1716 1853
1716 1855
1716 1881
1716 1891
1716 1904
1716 1907
1716 1909
1716 1910
1716 1920
1716 1934
1716 1935
1716 1940
1716 1945
1716 1952
1716 1961
1716 1977
1716 1988
1716 1993
1717 1722
1717 1732
1717 1736
1717 1747
1717 1766
1717 1770
1717 1781
1717 1826
1717 1827
1717 1838
1717 1843
1717 1846
1717 1851
1717 1869
1717 1895
1717 1910
1717 1917
1717 1922
1717 1932
1717 1942
1717 1949
1717 1960
1717 1964
1717 1973
1717 1981
1717 1991
1718 1723
1718 1732
1718 1738
1718 1745
1718 1750
1718 1751
1718 1771
1718 1783
1718 1788
1718 1799
1718 1804
1718 1822
1718 1836
1718 1847
1718 1858
1718 1861
1718 1864
1718 1893
1718 1924
1718 1926
1718 1960
1718 1966
1718 1993
1718 1997
1719 1727
1719 1752
1719 1765
1719 1771
1719 1772
1719 1788
1719 1792
1719 1807
1719 1809
1719 1813
1719 1819
1719 1830
1719 1843
1719 1847
1719 1858
1719 1867
1719 1876
1719 1891
1719 1903
1719 1919
1719 1922
1719 1926
1719 1949
1720 1740
1720 1752
1720 1753
1720 1759
1720 1761
1720 1768
1720 1773
1720 1803
1720 1815
1720 1822
1720 1828
1720 1864
1720 1871
1720 1880
1720 1895
1720 1900
1720 1904
1720 1906
1720 1914
1720 1933
1720 1934
1720 1967
1720 1971
1720 1973
1720 1980
1720 1984
1720 1987
1720 1988
1720 1995
1720 1996
1721 1729
1721 1731
1721 1736
1721 1741
1721 1744
1721 1749
1721 1750
1721 1755
1721 1775
1721 1783
1721 1796
1721 1797
1721 1806
1721 1816
1721 1826
1721 1828
1721 1843
1721 1847
1721 1853
1721 1856
1721 1870
1721 1872
1721 1882
1721 1883
1721 1910
1721 1914
1721 1924
1721 1934
1721 1942
1721 1960
1721 1961
1722 1723
1722 1725
1722 1729
1722 1739
1722 1769
1722 1776
1722 1777
1722 1810
1722 1811
1722 1851
1722 1869
1722 1873
1722 1886
1722 1890
1722 1898
1722 1901
1722 1918
1722 1935
1722 1996
1723 1741
1723 1754
1723 1760
1723 1761
1723 1788
1723 1809
1723 1810
1723 1817
1723 1822
1723 1831
1723 1834
1723 1843
1723 1846
1723 1850
1723 1866
1723 1871
1723 1878
1723 1907
1723 1914
1723 1931
1723 1940
1723 1964
1723 1997
1724 1733
1724 1740
1724 1741
1724 1757
1724 1777
1724 1783
1724 1787
1724 1807
1724 1832
1724 1846
1724 1861
1724 1875
1724 1876
1724 1883
1724 1891
1724 1900
1724 1903
1724 1913
1724 1919
1724 1923
1724 1937
1724 1965
1724 1979
1724 1980
1724 1985
1724 1986
1724 1998
1725 1731
1725 1741
1725 1749
1725 1764
1725 1768
1725 1784
1725 1787
1725 1796
1725 1797
1725 1814
1725 1826
1725 1834
1725 1837
1725 1850
1725 1853
1725 1878
1725 1883
1725 1893
1725 1898
1725 1906
1725 1914
1725 1916
1725 1918
1725 1919
1725 1958
1725 1963
1726 1727
1726 1729
1726 1768
1726 1780
1726 1792
1726 1798
1726 1802
1726 1803
1726 1812
1726 1834
1726 1847
1726 1868
1726 1875
1726 1880
1726 1889
1726 1890
1726 1893
1726 1908
1726 1909
1726 1941
1726 1949
1726 1971
1726 1976
1726 1977
1726 1997
1727 1728
1727 1730
1727 1731
1727 1741
1727 1746
1727 1762
1727 1768
1727 1785
1727 1792
1727 1808
1727 1812
1727 1827
1727 1858
1727 1860
1727 1865
1727 1871
1727 1910
1727 1938
1727 1943
1727 1952
1727 1956
1727 1971
1727 1981
1728 1730
1728 1745
1728 1747
1728 1766
1728 1768
1728 1784
1728 1786
1728 1795
1728 1804
1728 1805
1728 1808
1728 1814
1728 1840
1728 1845
1728 1846
1728 1848
1728 1852
1728 1867
1728 1890
1728 1894
1728 1895
1728 1896
1728 1926
1728 1929
1728 1935
1728 1952
1728 1953
1728 1959
1728 1971
1728 1972
1728 1974
1728 1982
1728 1998
1729 1768
1729 1789
1729 1815
1729 1827
1729 1837
1729 1864
1729 1880
1729 1881
1729 1900
1729 1923
1729 1936
1729 1947
1729 1950
1729 1953
1729 1961
1729 1971
1730 1734
1730 1744
1730 1755
1730 1768
1730 1775
1730 1784
1730 1789
1730 1815
1730 1816
1730 1817
1730 1829
1730 1845
1730 1856
1730 1883
1730 1891
1730 1897
1730 1935
1730 1950
1730 1951
1730 1964
1730 1969
1730 1970
1730 1976
1730 1998
1730 1999
1731 1738
1731 1747
1731 1769
1731 1783
1731 1786
1731 1792
1731 1809
1731 1827
1731 1828
1731 1840
1731 1842
1731 1844
1731 1850
1731 1861
1731 1866
1731 1875
1731 1883
1731 1890
1731 1898
1731 1902
1731 1911
1731 1914
1731 1924
1731 1935
1731 1941
1731 1953
1731 1969
1731 1970
1731 1976
1732 1744
1732 1751
1732 1758
1732 1787
1732 1794
1732 1798
1732 1801
1732 1807
1732 1812
1732 1820
1732 1833
1732 1843
1732 1855
1732 1888
1732 1892
1732 1894
1732 1903
1732 1917
1732 1923
1732 1936
1732 1953
1732 1968
1732 1970
1732 1972
1732 1978
1732 1980
1732 1993
1733 1754
1733 1755
1733 1756
1733 1774
1733 1776
1733 1777
1733 1780
1733 1786
1733 1788
1733 1810
1733 1829
1733 1835
1733 1837
1733 1845
1733 1850
1733 1864
1733 1874
1733 1889
1733 1892
1733 1897
1733 1918
1733 1922
1733 1942
1733 1950
1733 1963
1733 1971
1733 1973
1733 1983
1733 1998
1734 1738
1734 1740
1734 1749
1734 1752
1734 1755
1734 1763
1734 1784
1734 1793
1734 1801
1734 1811
1734 1815
1734 1838
1734 1855
1734 1873
1734 1877
1734 1898
1734 1900
1734 1903
1734 1916
1734 1918
1734 1922
1734 1928
1734 1935
1734 1940
1734 1941
1734 1945
1734 1956
1734 1961
1734 1978
1734 1992
1735 1749
1735 1751
1735 1755
1735 1771
1735 1774
1735 1799
1735 1813
1735 1818
1735 1829
1735 1836
1735 1871
1735 1894
1735 1896
1735 1920
1735 1930
1735 1931
1735 1935
1735 1945
1735 1951
1735 1976
1735 1979
1735 1981
1736 1738
1736 1739
1736 1740
1736 1742
1736 1745
1736 1752
1736 1754
1736 1759
1736 1760
1736 1765
1736 1779
1736 1785
1736 1823
1736 1824
1736 1830
1736 1835
1736 1840
1736 1843
1736 1853
1736 1866
1736 1873
1736 1890
1736 1892
1736 1894
1736 1913
1736 1916
1736 1955
1736 1957
1736 1962
1736 1979
1736 1997
1737 1741
1737 1746
1737 1747
1737 1755
1737 1762
1737 1773
1737 1776
1737 1777
1737 1781
1737 1786
1737 1788
1737 1794
1737 1798
1737 1799
1737 1802
1737 1818
1737 1830
1737 1843
1737 1848
1737 1862
1737 1864
1737 1885
1737 1886
1737 1904
1737 1921
1737 1973
1737 1987
1737 1988
1737 1991
1737 1993
1738 1741
1738 1749
1738 1758
1738 1765
1738 1769
1738 1833
1738 1839
1738 1842
1738 1844
1738 1847
1738 1853
1738 1868
1738 1878
1738 1887
1738 1892
1738 1902
1738 1905
1738 1920
1738 1930
1738 1935
1738 1936
1738 1957
1738 1958
1738 1982
1739 1743
1739 1761
1739 1776
1739 1779
1739 1798
1739 1802
1739 1812
1739 1821
1739 1823
1739 1832
1739 1840
1739 1848
1739 1856
1739 1892
1739 1901
1739 1921
1739 1927
1739 1928
1739 1931
1739 1933
1739 1954
1739 1960
1739 1962
1739 1977
1739 1982
1739 1983
1739 1995
1739 1998
1740 1741
1740 1748
1740 1749
1740 1762
1740 1765
1740 1779
1740 1797
1740 1822
1740 1851
1740 1852
1740 1854
1740 1866
1740 1878
1740 1906
1740 1919
1740 1920
1740 1937
1740 1943
1740 1963
1740 1971
1741 1742
1741 1746
1741 1749
1741 1750
1741 1754
1741 1768
1741 1784
1741 1788
1741 1797
1741 1805
1741 1823
1741 1848
1741 1867
1741 1877
1741 1891
1741 1902
1741 1911
1741 1916
1741 1923
1741 1924
1741 1933
1741 1957
1741 1969
1741 1970
1741 1971
1741 1975
1741 1979
1741 1988
1742 1748
1742 1755
1742 1758
1742 1766
1742 1770
1742 1773
1742 1789
1742 1805
1742 1807
1742 1812
1742 1820
1742 1825
1742 1842
1742 1848
1742 1850
1742 1863
1742 1872
1742 1875
1742 1880
1742 1903
1742 1926
1742 1927
1742 1929
1742 1940
1742 1941
1742 1945
1742 1950
1742 1952
1742 1955
1742 1974
1742 1991
1742 1999
1743 1758
1743 1771
1743 1772
1743 1774
1743 1780
1743 1782
1743 1797
1743 1823
1743 1825
1743 1826
1743 1836
1743 1839
1743 1845
1743 1846
1743 1867
1743 1887
1743 1888
1743 1894
1743 1902
1743 1909
1743 1912
1743 1914
1743 1932
1743 1955
1743 1967
1743 1975
1743 1983
1743 1989
1743 1996
1744 1750
1744 1759
1744 1770
1744 1794
1744 1801
1744 1814
1744 1818
1744 1833
1744 1835
1744 1847
1744 1855
1744 1869
1744 1882
1744 1906
1744 1913
1744 1922
1744 1927
1744 1931
1744 1932
1744 1968
1744 1979
1744 1986
1744 1989
1745 1750
1745 1769
1745 1785
1745 1815
1745 1823
1745 1827
1745 1829
1745 1830
1745 1841
1745 1855
1745 1863
1745 1864
1745 1870
1745 1871
1745 1882
1745 1891
1745 1900
1745 1909
1745 1911
1745 1913
1745 1932
1745 1940
1745 1942
1745 1946
1745 1959
1745 1963
1745 1964
1745 1972
1745 1989
1745 1991
1745 1998
1746 1760
1746 1765
1746 1773
1746 1788
1746 1803
1746 1809
1746 1825
1746 1826
1746 1830
1746 1835
1746 1838
1746 1862
1746 1869
1746 1875
1746 1878
1746 1880
1746 1892
1746 1894
1746 1895
1746 1910
1746 1913
1746 1928
1746 1954
1746 1955
1746 1963
1747 1771
1747 1777
1747 1778
1747 1786
1747 1787
1747 1790
1747 1794
1747 1812
1747 1818
1747 1820
1747 1825
1747 1832
1747 1843
1747 1845
1747 1856
1747 1863
1747 1869
1747 1878
1747 1908
1747 1911
1747 1912
1747 1917
1747 1927
1747 1938
1747 1957
1747 1971
1747 1973
1747 1975
1747 1981
1747 1986
1747 1989
1748 1757
1748 1779
1748 1780
1748 1784
1748 1788
1748 1791
1748 1806
1748 1815
1748 1821
1748 1829
1748 1839
1748 1840
1748 1852
1748 1854
1748 1882
1748 1911
1748 1918
1748 1928
1748 1932
1748 1945
1748 1953
1748 1964
1748 1974
1748 1984
1748 1988
1748 1989
1748 1991
1749 1754
1749 1759
1749 1776
1749 1786
1749 1790
1749 1791
1749 1792
1749 1793
1749 1804
1749 1822
1749 1825
1749 1847
1749 1854
1749 1855
1749 1862
1749 1872
1749 1874
1749 1883
1749 1884
1749 1891
1749 1931
1749 1951
1749 1955
1749 1957
1749 1959
1749 1968
1750 1811
1750 1824
1750 1830
1750 1848
1750 1887
1750 1897
1750 1901
1750 1905
1750 1914
1750 1920
1750 1924
1750 1931
1750 1933
1750 1935
1750 1952
1750 1957
1750 1968
1750 1990
1751 1756
1751 1763
1751 1768
1751 1788
1751 1802
1751 1816
1751 1826
1751 1831
1751 1846
1751 1872
1751 1874
1751 1879
1751 1895
1751 1934
1751 1939
1751 1952
1751 1959
1751 1987
1752 1758
1752 1767
1752 1769
1752 1771
1752 1780
1752 1794
1752 1800
1752 1808
1752 1839
1752 1850
1752 1855
1752 1857
1752 1862
1752 1873
1752 1876
1752 1877
1752 1893
1752 1895
1752 1929
1752 1938
1752 1940
1752 1943
1752 1984
1752 1987
1752 1989
1752 1998
1753 1756
1753 1765
1753 1778
1753 1781
1753 1787
1753 1821
1753 1827
1753 1836
1753 1839
1753 1844
1753 1847
1753 1851
1753 1853
1753 1862
1753 1895
1753 1941
1753 1945
1753 1950
1753 1956
1753 1972
1753 1980
1753 1991
1754 1767
1754 1778
1754 1780
1754 1782
1754 1802
1754 1815
1754 1828
1754 1832
1754 1835
1754 1852
1754 1870
1754 1873
1754 1874
1754 1883
1754 1884
1754 1894
1754 1895
1754 1898
1754 1913
1754 1928
1754 1933
1754 1937
1754 1941
1754 1954
1754 1977
1754 1981
1754 1982
1754 1992
1755 1768
1755 1769
1755 1799
1755 1813
1755 1819
1755 1823
1755 1830
1755 1837
1755 1842
1755 1849
1755 1853
1755 1869
1755 1876
1755 1884
1755 1891
1755 1900
1755 1901
1755 1902
1755 1910
1755 1922
1755 1927
1755 1935
1755 1961
1755 1980
1756 1770
1756 1771
1756 1787
1756 1788
1756 1806
1756 1808
1756 1811
1756 1815
1756 1834
1756 1838
1756 1843
1756 1873
1756 1876
1756 1888
1756 1894
1756 1911
1756 1918
1756 1938
1756 1952
1756 1962
1756 1978
1757 1767
1757 1775
1757 1782
1757 1790
1757 1793
1757 1806
1757 1819
1757 1823
1757 1840
1757 1851
1757 1859
1757 1862
1757 1866
1757 1868
1757 1873
1757 1882
1757 1890
1757 1896
1757 1897
1757 1903
1757 1919
1757 1921
1757 1922
1757 1929
1757 1943
1757 1966
1757 1975
1757 1977
1757 1984
1758 1773
1758 1790
1758 1791
1758 1804
1758 1810
1758 1817
1758 1820
1758 1840
1758 1868
1758 1875
1758 1887
1758 1906
1758 1916
1758 1949
1758 1955
1758 1968
1758 1996
1758 1997
1759 1775
1759 1783
1759 1786
1759 1796
1759 1809
1759 1811
1759 1818
1759 1820
1759 1823
1759 1825
1759 1858
1759 1866
1759 1871
1759 1892
1759 1911
1759 1923
1759 1925
1759 1928
1759 1937
1759 1963
1759 1971
1759 1973
1759 1977
1759 1988
1760 1785
1760 1787
1760 1795
1760 1798
1760 1800
1760 1809
1760 1810
1760 1816
1760 1831
1760 1837
1760 1844
1760 1855
1760 1857
1760 1865
1760 1869
1760 1878
1760 1889
1760 1901
1760 1909
1760 1912
1760 1917
1760 1925
1760 1926
1760 1928
1760 1940
1760 1944
1760 1958
1760 1978
1760 1981
1760 1982
1760 1989
1760 1991
1760 1999
1761 1764
1761 1767
1761 1772
1761 1774
1761 1775
1761 1780
1761 1795
1761 1803
1761 1810
1761 1815
1761 1832
1761 1851
1761 1863
1761 1870
1761 1905
1761 1911
1761 1914
1761 1928
1761 1930
1761 1937
1761 1945
1761 1967
1761 1982
1761 1984
1761 1991
1761 1997
1761 1998
1762 1783
1762 1790
1762 1793
1762 1802
1762 1805
1762 1808
1762 1811
1762 1822
1762 1826
1762 1856
1762 1869
1762 1871
1762 1874
1762 1878
1762 1880
1762 1882
1762 1900
1762 1904
1762 1907
1762 1922
1762 1951
1762 1962
1762 1964
1762 1967
1762 1982
1762 1990
1762 1991
1762 1992
1762 1996
1763 1766
1763 1808
1763 1810
1763 1864
1763 1865
1763 1874
1763 1878
1763 1879
1763 1918
1763 1924
1763 1929
1763 1930
1763 1941
1763 1960
1763 1964
1763 1965
1763 1970
1763 1996
1764 1768
1764 1772
1764 1774
1764 1784
1764 1796
1764 1801
1764 1824
1764 1844
1764 1874
1764 1890
1764 1894
1764 1902
1764 1934
1764 1935
1764 1946
1764 1965
1764 1989
1764 1992
1765 1768
1765 1788
1765 1793
1765 1794
1765 1804
1765 1812
1765 1828
1765 1838
1765 1853
1765 1859
1765 1866
1765 1907
1765 1914
1765 1918
1765 1930
1765 1932
1765 1941
1765 1950
1765 1956
1765 1960
1765 1974
1765 1982
1765 1995
1766 1807
1766 1812
1766 1817
1766 1823
1766 1829
1766 1832
1766 1840
1766 1864
1766 1867
1766 1870
1766 1879
1766 1893
1766 1898
1766 1912
1766 1931
1766 1947
1766 1956
1766 1960
1766 1963
1766 1968
1766 1973
1766 1974
1766 1990
1766 1994
1767 1774
1767 1777
1767 1793
1767 1829
1767 1832
1767 1835
1767 1857
1767 1880
1767 1896
1767 1897
1767 1898
1767 1904
1767 1915
1767 1926
1767 1931
1767 1933
1767 1942
1767 1948
1767 1976
1767 1998
1768 1813
1768 1822
1768 1823
1768 1825
1768 1837
1768 1869
1768 1873
1768 1887
1768 1889
1768 1900
1768 1911
1768 1914
1768 1915
1768 1938
1768 1948
1768 1950
1768 1964
1768 1982
1768 1983
1768 1987
1768 1996
1769 1789
1769 1800
1769 1808
1769 1811
1769 1821
1769 1860
1769 1874
1769 1904
1769 1910
1769 1913
1769 1917
1769 1918
1769 1923
1769 1926
1769 1930
1769 1931
1769 1942
1769 1948
1769 1958
1769 1990
1769 1991
1769 1994
1769 1999
1770 1775
1770 1796
1770 1801
1770 1802
1770 1809
1770 1811
1770 1822
1770 1845
1770 1850
1770 1852
1770 1855
1770 1861
1770 1881
1770 1902
1770 1906
1770 1907
1770 1911
1770 1919
1770 1924
1770 1950
1770 1975
1770 1991
1770 1997
1771 1772
1771 1785
1771 1787
1771 1801
1771 1819
1771 1823
1771 1832
1771 1835
1771 1843
1771 1863
1771 1865
1771 1867
1771 1897
1771 1912
1771 1916
1771 1921
1771 1925
1771 1936
1771 1942
1771 1949
1771 1954
1771 1955
1771 1969
1771 1971
1771 1998
1772 1802
1772 1812
1772 1830
1772 1838
1772 1881
1772 1882
1772 1893
1772 1903
1772 1904
1772 1910
1772 1915
1772 1941
1772 1948
1772 1957
1772 1972
1772 1986
1772 1987
1772 1995
1772 1999
1773 1786
1773 1790
1773 1796
1773 1815
1773 1820
1773 1821
1773 1830
1773 1852
1773 1859
1773 1877
1773 1888
1773 1890
1773 1902
1773 1906
1773 1913
1773 1922
1773 1929
1773 1930
1773 1943
1773 1948
1773 1959
1773 1961
1773 1967
1773 1970
1773 1974
1773 1978
1774 1776
1774 1778
1774 1798
1774 1800
1774 1806
1774 1822
1774 1836
1774 1848
1774 1852
1774 1857
1774 1867
1774 1869
1774 1880
1774 1903
1774 1904
1774 1905
1774 1906
1774 1912
1774 1917
1774 1933
1774 1937
1774 1939
1774 1944
1774 1951
1774 1956
1774 1968
1774 1977
1774 1979
1774 1981
1774 1984
1775 1776
1775 1795
1775 1809
1775 1852
1775 1858
1775 1874
1775 1878
1775 1879
1775 1887
1775 1892
1775 1893
1775 1898
1775 1937
1775 1953
1775 1967
1775 1972
1776 1783
1776 1798
1776 1804
1776 1827
1776 1834
1776 1858
1776 1866
1776 1869
1776 1880
1776 1885
1776 1886
1776 1887
1776 1888
1776 1896
1776 1899
1776 1901
1776 1914
1776 1923
1776 1934
1776 1945
1776 1954
1776 1962
1776 1965
1776 1985
1776 1988
1777 1805
1777 1806
1777 1809
1777 1810
1777 1823
1777 1841
1777 1849
1777 1855
1777 1863
1777 1864
1777 1871
1777 1873
1777 1887
1777 1888
1777 1896
1777 1900
1777 1901
1777 1907
1777 1925
1777 1977
1777 1983
1778 1781
1778 1782
1778 1783
1778 1788
1778 1793
1778 1795
1778 1808
1778 1812
1778 1821
1778 1829
1778 1837
1778 1844
1778 1847
1778 1848
1778 1856
1778 1857
1778 1873
1778 1874
1778 1883
1778 1884
1778 1888
1778 1894
1778 1911
1778 1914
1778 1915
1778 1921
1778 1925
1778 1968
1778 1973
1778 1981
1778 1991
1778 1999
1779 1780
1779 1788
1779 1800
1779 1808
1779 1815
1779 1817
1779 1821
1779 1834
1779 1835
1779 1843
1779 1845
1779 1847
1779 1854
1779 1866
1779 1879
1779 1881
1779 1882
1779 1887
1779 1888
1779 1902
1779 1905
1779 1908
1779 1913
1779 1968
1779 1984
1780 1795
1780 1802
1780 1815
1780 1817
1780 1818
1780 1824
1780 1829
1780 1832
1780 1843
1780 1853
1780 1855
1780 1866
1780 1867
1780 1881
1780 1893
1780 1902
1780 1903
1780 1905
1780 1908
1780 1911
1780 1917
1780 1921
1780 1925
1780 1961
1780 1967
1780 1990
1781 1786
1781 1797
1781 1812
1781 1820
1781 1845
1781 1850
1781 1859
1781 1866
1781 1870
1781 1875
1781 1880
1781 1889
1781 1894
1781 1926
1781 1928
1781 1960
1781 1965
1781 1983
1781 1985
1781 1987
1781 1993
1782 1813
1782 1819
1782 1823
1782 1829
1782 1841
1782 1842
1782 1850
1782 1858
1782 1863
1782 1884
1782 1885
1782 1898
1782 1900
1782 1908
1782 1918
1782 1947
1782 1960
1782 1977
1783 1817
1783 1840
1783 1859
1783 1866
1783 1869
1783 1887
1783 1906
1783 1912
1783 1929
1783 1931
1783 1939
1783 1950
1783 1958
1784 1790
1784 1797
1784 1800
1784 1804
1784 1819
1784 1829
1784 1830
1784 1834
1784 1849
1784 1852
1784 1859
1784 1882
1784 1893
1784 1900
1784 1903
1784 1911
1784 1912
1784 1932
1784 1934
1784 1945
1784 1954
1784 1980
1784 1992
1784 1995
1784 1996
1784 1997
1784 1999
1785 1786
1785 1788
1785 1800
1785 1822
1785 1824
1785 1825
1785 1837
1785 1839
1785 1852
1785 1860
1785 1868
1785 1890
1785 1895
1785 1911
1785 1917
1785 1919
1785 1924
1785 1957
1785 1961
1785 1965
1785 1986
1785 1989
1786 1792
1786 1795
1786 1797
1786 1804
1786 1807
1786 1826
1786 1829
1786 1832
1786 1837
1786 1858
1786 1859
1786 1860
1786 1863
1786 1866
1786 1883
1786 1888
1786 1891
1786 1906
1786 1919
1786 1923
1786 1927
1786 1950
1786 1964
1786 1986
1786 1990
1786 1996
1787 1806
1787 1810
1787 1818
1787 1829
1787 1831
1787 1833
1787 1834
1787 1835
1787 1849
1787 1851
1787 1867
1787 1875
1787 1879
1787 1891
1787 1902
1787 1904
1787 1920
1787 1925
1787 1934
1787 1954
1787 1956
1787 1970
1787 1972
1787 1985
1788 1803
1788 1834
1788 1842
1788 1865
1788 1873
1788 1895
1788 1904
1788 1908
1788 1925
1788 1943
1788 1953
1788 1956
1788 1969
1788 1978
1788 1986
1788 1990
1788 1991
1788 1992
1788 1993
1789 1793
1789 1795
1789 1809
1789 1810
1789 1828
1789 1851
1789 1860
1789 1862
1789 1867
1789 1870
1789 1872
1789 1873
1789 1874
1789 1886
1789 1927
1789 1931
1789 1961
1789 1974
1789 1975
1789 1979
1789 1983
1789 1988
1790 1792
1790 1796
1790 1808
1790 1827
1790 1828
1790 1869
1790 1880
1790 1883
1790 1905
1790 1910
1790 1915
1790 1922
1790 1925
1790 1928
1790 1938
1790 1940
1790 1942
1790 1953
1790 1958
1790 1983
1791 1798
1791 1800
1791 1809
1791 1819
1791 1821
1791 1836
1791 1837
1791 1849
1791 1859
1791 1866
1791 1872
1791 1884
1791 1889
1791 1924
1791 1926
1791 1943
1791 1948
1791 1988
1791 1989
1792 1805
1792 1818
1792 1819
1792 1832
1792 1836
1792 1838
1792 1846
1792 1879
1792 1897
1792 1899
1792 1905
1792 1910
1792 1918
1792 1951
1792 1955
1792 1966
1792 1971
1792 1975
1792 1979
1792 1982
1792 1995
1792 1998
1792 1999
1793 1798
1793 1802
1793 1804
1793 1816
1793 1821
1793 1838
1793 1843
1793 1845
1793 1858
1793 1869
1793 1871
1793 1889
1793 1899
1793 1904
1793 1905
1793 1908
1793 1917
1793 1919
1793 1930
1793 1946
1793 1955
1793 1966
1793 1969
1793 1981
1793 1988
1794 1795
1794 1798
1794 1801
1794 1819
1794 1827
1794 1839
1794 1847
1794 1851
1794 1859
1794 1866
1794 1870
1794 1872
1794 1874
1794 1893
1794 1902
1794 1904
1794 1919
1794 1926
1794 1940
1794 1961
1794 1964
1794 1965
1794 1978
1794 1985
1794 1996
1795 1817
1795 1857
1795 1879
1795 1896
1795 1906
1795 1909
1795 1913
1795 1924
1795 1966
1795 1975
1795 1988
1795 1998
1796 1816
1796 1818
1796 1827
1796 1842
1796 1888
1796 1904
1796 1920
1796 1935
1796 1949
1796 1984
1797 1802
1797 1816
1797 1823
1797 1830
1797 1832
1797 1855
1797 1864
1797 1877
1797 1892
1797 1906
1797 1908
1797 1918
1797 1919
1797 1955
1797 1960
1797 1967
1797 1972
1797 1982
1797 1992
1797 1993
1798 1807
1798 1808
1798 1813
1798 1821
1798 1822
1798 1823
1798 1839
1798 1851
1798 1860
1798 1864
1798 1866
1798 1872
1798 1877
1798 1880
1798 1929
1798 1934
1798 1970
1799 1821
1799 1825
1799 1855
1799 1865
1799 1868
1799 1872
1799 1896
1799 1898
1799 1911
1799 1915
1799 1937
1799 1939
1799 1953
1799 1984
1799 1998
1800 1826
1800 1828
1800 1838
1800 1839
1800 1846
1800 1851
1800 1871
1800 1877
1800 1899
1800 1905
1800 1909
1800 1918
1800 1922
1800 1934
1800 1935
1800 1945
1800 1948
1800 1955
1800 1971
1800 1986
1800 1987
1801 1812
1801 1828
1801 1840
1801 1844
1801 1847
1801 1854
1801 1874
1801 1875
1801 1885
1801 1893
1801 1896
1801 1898
1801 1906
1801 1923
1801 1940
1801 1954
1801 1965
1801 1967
1801 1972
1801 1986
1801 1994
1802 1805
1802 1820
1802 1836
1802 1843
1802 1846
1802 1859
1802 1867
1802 1886
1802 1888
1802 1896
1802 1897
1802 1908
1802 1916
1802 1938
1802 1954
1802 1970
1802 1997
1803 1806
1803 1822
1803 1825
1803 1844
1803 1848
1803 1850
1803 1855
1803 1858
1803 1864
1803 1879
1803 1887
1803 1892
1803 1903
1803 1910
1803 1917
1803 1922
1803 1929
1803 1931
1803 1944
1803 1945
1803 1950
1803 1953
1803 1955
1803 1961
1803 1963
1803 1977
1803 1985
1803 1986
1803 1987
1803 1999
1804 1805
1804 1822
1804 1825
1804 1830
1804 1852
1804 1859
1804 1871
1804 1884
1804 1890
1804 1891
1804 1895
1804 1896
1804 1898
1804 1916
1804 1925
1804 1928
1804 1935
1804 1937
1804 1952
1804 1960
1804 1967
1804 1970
1804 1977
1804 1989
1805 1817
1805 1827
1805 1846
1805 1879
1805 1882
1805 1900
1805 1908
1805 1915
1805 1929
1805 1975
1806 1818
1806 1820
1806 1833
1806 1848
1806 1857
1806 1867
1806 1868
1806 1878
1806 1879
1806 1887
1806 1893
1806 1909
1806 1925
1806 1933
1806 1953
1807 1815
1807 1817
1807 1829
1807 1831
1807 1865
1807 1873
1807 1876
1807 1887
1807 1892
1807 1898
1807 1899
1807 1908
1807 1922
1807 1923
1807 1932
1807 1964
1807 1965
1807 1974
1807 1975
1807 1976
1807 1989
1807 1999
1808 1819
1808 1835
1808 1853
1808 1860
1808 1865
1808 1881
1808 1893
1808 1902
1808 1903
1808 1906
1808 1910
1808 1912
1808 1951
1808 1957
1808 1963
1808 1971
1808 1976
1809 1827
1809 1834
1809 1835
1809 1836
1809 1839
1809 1844
1809 1863
1809 1865
1809 1868
1809 1882
1809 1894
1809 1917
1809 1931
1809 1958
1809 1974
1809 1980
1809 1983
1810 1814
1810 1817
1810 1823
1810 1837
1810 1840
1810 1857
1810 1925
1810 1950
1810 1977
1810 1996
1810 1998
1811 1814
1811 1827
1811 1830
1811 1834
1811 1855
1811 1857
1811 1859
1811 1867
1811 1885
1811 1900
1811 1923
1811 1927
1811 1943
1811 1944
1811 1952
1811 1974
1811 1977
1811 1984
1811 1988
1811 1995
1812 1818
1812 1823
1812 1827
1812 1829
1812 1839
1812 1845
1812 1863
1812 1864
1812 1866
1812 1877
1812 1885
1812 1896
1812 1901
1812 1911
1812 1914
1812 1917
1812 1927
1812 1939
1812 1945
1812 1955
1812 1966
1812 1976
1812 1981
1812 1995
1812 1999
1813 1823
1813 1837
1813 1843
1813 1844
1813 1859
1813 1867
1813 1869
1813 1874
1813 1881
1813 1884
1813 1888
1813 1901
1813 1923
1813 1926
1813 1953
1813 1964
1813 1972
1813 1978
1813 1983
1813 1984
1813 1994
1813 1997
1814 1818
1814 1831
1814 1834
1814 1837
1814 1859
1814 1872
1814 1874
1814 1877
1814 1891
1814 1905
1814 1910
1814 1916
1814 1928
1814 1955
1814 1970
1814 1978
1814 1979
1814 1990
1814 1993
1815 1830
1815 1831
1815 1844
1815 1845
1815 1847
1815 1855
1815 1863
1815 1867
1815 1880
1815 1894
1815 1918
1815 1933
1815 1937
1815 1949
1815 1957
1815 1961
1815 1964
1815 1969
1815 1970
1815 1983
1816 1818
1816 1822
1816 1834
1816 1850
1816 1858
1816 1860
1816 1868
1816 1878
1816 1884
1816 1897
1816 1898
1816 1902
1816 1916
1816 1920
1816 1931
1816 1967
1816 1971
1816 1989
1816 1996
1817 1847
1817 1849
1817 1854
1817 1856
1817 1860
1817 1864
1817 1878
1817 1879
1817 1882
1817 1894
1817 1908
1817 1916
1817 1919
1817 1920
1817 1921
1817 1955
1817 1960
1817 1974
1817 1976
1817 1992
1817 1998
1818 1819
1818 1820
1818 1838
1818 1843
1818 1846
1818 1878
1818 1879
1818 1889
1818 1938
1818 1939
1818 1948
1818 1958
1818 1961
1818 1966
1819 1837
1819 1844
1819 1850
1819 1851
1819 1874
1819 1877
1819 1881
1819 1887
1819 1893
1819 1894
1819 1907
1819 1968
1820 1821
1820 1829
1820 1845
1820 1855
1820 1899
1820 1910
1820 1913
1820 1925
1820 1944
1820 1949
1820 1952
1820 1957
1820 1970
1820 1971
1820 1981
1820 1982
1820 1994
1820 1995
1820 1997
1821 1823
1821 1831
1821 1843
1821 1844
1821 1901
1821 1912
1821 1951
1821 1955
1821 1964
1821 1977
1821 1979
1821 1985
1821 1991
1821 1993
1821 1998
1822 1826
1822 1844
1822 1848
1822 1872
1822 1882
1822 1886
1822 1901
1822 1909
1822 1925
1822 1970
1823 1827
1823 1844
1823 1865
1823 1875
1823 1877
1823 1892
1823 1915
1823 1923
1823 1925
1823 1926
1823 1927
1823 1933
1823 1938
1823 1943
1823 1946
1823 1956
1823 1962
1823 1969
1823 1982
1823 1999
1824 1829
1824 1838
1824 1850
1824 1853
1824 1860
1824 1869
1824 1871
1824 1872
1824 1879
1824 1885
1824 1888
1824 1907
1824 1911
1824 1918
1824 1942
1824 1947
1824 1968
1824 1980
1825 1827
1825 1834
1825 1844
1825 1872
1825 1878
1825 1892
1825 1894
1825 1908
1825 1913
1825 1916
1825 1921
1825 1929
1825 1943
1825 1956
1825 1958
1825 1960
1825 1970
1826 1832
1826 1854
1826 1865
1826 1871
1826 1874
1826 1884
1826 1906
1826 1912
1826 1916
1826 1918
1826 1938
1826 1970
1826 1981
1827 1838
1827 1842
1827 1850
1827 1854
1827 1866
1827 1904
1827 1909
1827 1922
1827 1928
1827 1949
1827 1955
1827 1962
1827 1975
1827 1985
1828 1829
1828 1830
1828 1842
1828 1846
1828 1848
1828 1870
1828 1872
1828 1881
1828 1897
1828 1919
1828 1923
1828 1927
1828 1933
1828 1966
1828 1987
1829 1830
1829 1836
1829 1838
1829 1857
1829 1865
1829 1900
1829 1907
1829 1922
1829 1927
1829 1976
1829 1983
1829 1986
1830 1844
1830 1846
1830 1852
1830 1867
1830 1870
1830 1876
1830 1881
1830 1898
1830 1912
1830 1923
1830 1930
1830 1934
1830 1951
1830 1952
1830 1960
1830 1994
1831 1842
1831 1845
1831 1846
1831 1850
1831 1857
1831 1862
1831 1863
1831 1888
1831 1900
1831 1918
1831 1933
1831 1937
1831 1948
1831 1965
1831 1974
1831 1982
1831 1987
1831 1989
1832 1834
1832 1852
1832 1861
1832 1871
1832 1875
1832 1904
1832 1907
1832 1917
1832 1929
1832 1931
1832 1939
1832 1940
1832 1958
1832 1963
1832 1968
1832 1976
1832 1977
1832 1993
1833 1839
1833 1843
1833 1860
1833 1865
1833 1871
1833 1898
1833 1903
1833 1908
1833 1909
1833 1919
1833 1938
1833 1950
1833 1952
1833 1962
1833 1986
1833 1987
1833 1999
1834 1838
1834 1840
1834 1855
1834 1879
1834 1880
1834 1891
1834 1905
1834 1935
1834 1943
1834 1947
1834 1952
1834 1974
1834 1998
1835 1854
1835 1861
1835 1864
1835 1868
1835 1874
1835 1878
1835 1887
1835 1891
1835 1900
1835 1902
1835 1906
1835 1909
1835 1934
1835 1939
1835 1943
1835 1972
1835 1976
1835 1979
1835 1984
1835 1988
1835 1993
1835 1995
1836 1840
1836 1846
1836 1868
1836 1871
1836 1872
1836 1876
1836 1878
1836 1888
1836 1894
1836 1906
1836 1914
1836 1941
1836 1951
1836 1952
1836 1986
1836 1999
1837 1849
1837 1871
1837 1875
1837 1893
1837 1897
1837 1898
1837 1900
1837 1904
1837 1906
1837 1913
1837 1923
1837 1926
1837 1941
1837 1942
1837 1946
1837 1955
1837 1960
1837 1961
1837 1969
1837 1973
1837 1975
1837 1980
1837 1982
1837 1987
1837 1988
1837 1995
1838 1841
1838 1851
1838 1857
1838 1860
1838 1872
1838 1892
1838 1900
1838 1905
1838 1910
1838 1918
1838 1923
1838 1925
1838 1931
1838 1935
1838 1947
1838 1964
1838 1972
1838 1979
1838 1991
1839 1842
1839 1849
1839 1850
1839 1857
1839 1866
1839 1877
1839 1884
1839 1886
1839 1888
1839 1898
1839 1912
1839 1913
1839 1923
1839 1930
1839 1934
1839 1942
1839 1955
1839 1964
1839 1978
1839 1980
1839 1996
1839 1999
1840 1861
1840 1874
1840 1876
1840 1907
1840 1908
1840 1912
1840 1921
1840 1953
1840 1960
1840 1972
1840 1980
1840 1982
1841 1848
1841 1861
1841 1865
1841 1875
1841 1877
1841 1888
1841 1892
1841 1899
1841 1905
1841 1923
1841 1930
1841 1934
1841 1941
1841 1943
1841 1959
1841 1962
1841 1968
1841 1971
1841 1973
1841 1974
1841 1980
1841 1990
1841 1995
1842 1861
1842 1870
1842 1872
1842 1874
1842 1880
1842 1887
1842 1895
1842 1904
1842 1905
1842 1906
1842 1907
1842 1920
1842 1926
1842 1959
1842 1970
1842 1973
1842 1998
1843 1846
1843 1849
1843 1853
1843 1857
1843 1860
1843 1864
1843 1882
1843 1889
1843 1891
1843 1906
1843 1907
1843 1913
1843 1928
1843 1983
1844 1855
1844 1856
1844 1860
1844 1868
1844 1882
1844 1883
1844 1886
1844 1899
1844 1903
1844 1906
1844 1913
1844 1923
1844 1929
1844 1956
1844 1970
1844 1981
1844 1990
1845 1861
1845 1879
1845 1887
1845 1903
1845 1913
1845 1920
1845 1943
1845 1950
1845 1963
1845 1986
1846 1847
1846 1849
1846 1851
1846 1882
1846 1894
1846 1899
1846 1906
1846 1911
1846 1916
1846 1924
1846 1944
1846 1954
1846 1978
1847 1863
1847 1878
1847 1879
1847 1885
1847 1892
1847 1904
1847 1910
1847 1913
1847 1921
1847 1925
1847 1930
1847 1931
1847 1950
1847 1964
1847 1980
1847 1985
1847 1995
1848 1859
1848 1865
1848 1876
1848 1892
1848 1904
1848 1923
1848 1937
1848 1945
1848 1948
1848 1962
1848 1970
1848 1994
1849 1852
1849 1857
1849 1860
1849 1870
1849 1888
1849 1891
1849 1899
1849 1903
1849 1905
1849 1931
1849 1942
1849 1952
1849 1954
1849 1975
1850 1885
1850 1889
1850 1894
1850 1903
1850 1927
1850 1964
1850 1965
1850 1984
1850 1990
1850 1992
1851 1854
1851 1855
1851 1858
1851 1860
1851 1881
1851 1893
1851 1897
1851 1902
1851 1926
1851 1933
1851 1937
1851 1938
1851 1960
1851 1966
1851 1969
1851 1971
1851 1981
1851 1994
1851 1996
1852 1856
1852 1865
1852 1871
1852 1873
1852 1874
1852 1876
1852 1883
1852 1895
1852 1900
1852 1924
1852 1927
1852 1946
1852 1948
1852 1952
1852 1955
1852 1972
1852 1980
1852 1987
1853 1861
1853 1867
1853 1868
1853 1877
1853 1882
1853 1886
1853 1890
1853 1898
1853 1912
1853 1916
1853 1919
1853 1921
1853 1933
1853 1939
1853 1944
1853 1967
1853 1971
1853 1972
1853 1978
1853 1981
1853 1984
1853 1987
1854 1895
1854 1899
1854 1906
1854 1910
1854 1926
1854 1938
1854 1944
1854 1948
1854 1949
1854 1956
1854 1961
1854 1980
1854 1983
1854 1993
1854 1998
1854 1999
1855 1858
1855 1859
1855 1862
1855 1869
1855 1877
1855 1885
1855 1889
1855 1895
1855 1902
1855 1927
1855 1947
1855 1948
1855 1955
1855 1966
1855 1990
1855 1992
1856 1862
1856 1864
1856 1883
1856 1885
1856 1898
1856 1899
1856 1920
1856 1929
1856 1942
1856 1950
1856 1967
1856 1975
1856 1982
1857 1862
1857 1881
1857 1886
1857 1888
1857 1891
1857 1897
1857 1899
1857 1907
1857 1940
1857 1953
1857 1958
1857 1962
1857 1978
1857 1980
1858 1875
1858 1883
1858 1890
1858 1902
1858 1924
1858 1929
1858 1962
1858 1971
1858 1977
1858 1979
1858 1986
1858 1991
1859 1862
1859 1863
1859 1870
1859 1871
1859 1895
1859 1901
1859 1909
1859 1921
1859 1932
1859 1950
1859 1956
1859 1972
1859 1974
1859 1986
1859 1991
1860 1883
1860 1885
1860 1909
1860 1919
1860 1935
1860 1946
1860 1968
1860 1976
1861 1864
1861 1868
1861 1872
1861 1877
1861 1890
1861 1922
1861 1923
1861 1927
1861 1968
1861 1979
1862 1882
1862 1890
1862 1894
1862 1906
1862 1917
1862 1924
1862 1928
1862 1931
1862 1936
1862 1939
1862 1944
1862 1950
1862 1955
1862 1959
1862 1962
1862 1963
1862 1969
1862 1981
1862 1994
1862 1996
1863 1882
1863 1888
1863 1914
1863 1917
1863 1941
1863 1984
1863 1993
1863 1998
1864 1873
1864 1902
1864 1907
1864 1922
1864 1944
1864 1947
1864 1967
1864 1971
1864 1975
1864 1989
1864 1990
1864 1995
1865 1868
1865 1876
1865 1907
1865 1913
1865 1923
1865 1928
1865 1945
1865 1953
1865 1955
1865 1982
1865 1994
1866 1883
1866 1891
1866 1892
1866 1899
1866 1901
1866 1902
1866 1904
1866 1919
1866 1926
1866 1928
1866 1937
1866 1958
1866 1969
1866 1978
1866 1992
1866 1996
1866 1997
1866 1999
1867 1868
1867 1922
1867 1923
1867 1928
1867 1963
1867 1964
1867 1975
1867 1982
1867 1991
1868 1881
1868 1909
1868 1910
1868 1926
1868 1933
1868 1940
1868 1942
1868 1949
1868 1964
1868 1983
1869 1873
1869 1875
1869 1898
1869 1900
1869 1901
1869 1903
1869 1910
1869 1919
1869 1946
1869 1956
1869 1976
1869 1986
1870 1871
1870 1872
1870 1885
1870 1890
1870 1895
1870 1902
1870 1912
1870 1916
1870 1922
1870 1928
1870 1931
1870 1953
1870 1962
1870 1963
1870 1966
1870 1972
1870 1986
1870 1998
1871 1874
1871 1902
1871 1904
1871 1915
1871 1920
1871 1923
1871 1937
1871 1943
1871 1944
1871 1945
1871 1971
1871 1993
1872 1873
1872 1878
1872 1888
1872 1890
1872 1911
1872 1916
1872 1939
1872 1961
1872 1964
1872 1975
1872 1984
1872 1985
1872 1998
1872 1999
1873 1889
1873 1899
1873 1907
1873 1915
1873 1917
1873 1921
1873 1932
1873 1947
1873 1959
1873 1970
1873 1971
1873 1981
1874 1879
1874 1884
1874 1887
1874 1891
1874 1897
1874 1910
1874 1928
1874 1930
1874 1952
1874 1961
1874 1991
1875 1882
1875 1893
1875 1902
1875 1908
1875 1926
1875 1938
1875 1964
1875 1965
1875 1976
1875 1977
1875 1993
1876 1889
1876 1904
1876 1905
1876 1909
1876 1949
1876 1950
1876 1951
1876 1955
1876 1960
1876 1969
1876 1976
1876 1989
1876 1995
1877 1884
1877 1897
1877 1900
1877 1908
1877 1912
1877 1921
1877 1923
1877 1927
1877 1937
1877 1946
1877 1954
1877 1965
1877 1974
1877 1992
1878 1884
1878 1906
1878 1908
1878 1922
1878 1983
1878 1988
1878 1990
1879 1885
1879 1886
1879 1890
1879 1920
1879 1943
1879 1947
1879 1961
1879 1971
1879 1974
1879 1986
1879 1990
1879 1991
1879 1993
1880 1900
1880 1926
1880 1948
1880 1952
1880 1959
1880 1960
1880 1962
1880 1976
1880 1982
1880 1983
1880 1993
1880 1999
1881 1884
1881 1892
1881 1902
1881 1919
1881 1925
1881 1928
1881 1943
1881 1948
1881 1966
1881 1968
1881 1971
1881 1976
1881 1986
1881 1989
1881 1990
1881 1993
1881 1995
1882 1888
1882 1889
1882 1896
1882 1906
1882 1940
1882 1953
1882 1961
1882 1974
1882 1975
1882 1976
1882 1993
1883 1888
1883 1891
1883 1923
1883 1927
1883 1934
1883 1938
1883 1951
1883 1970
1883 1980
1883 1984
1883 1991
1884 1885
1884 1892
1884 1904
1884 1912
1884 1913
1884 1915
1884 1919
1884 1943
1884 1949
1884 1971
1884 1977
1884 1981
1884 1988
1885 1902
1885 1935
1885 1944
1885 1950
1885 1951
1885 1956
1885 1984
1885 1985
1885 1998
1886 1889
1886 1907
1886 1931
1886 1936
1886 1980
1886 1995
1886 1999
1887 1889
1887 1923
1887 1926
1887 1930
1887 1933
1887 1938
1887 1949
1887 1953
1887 1959
1887 1979
1887 1982
1887 1983
1887 1984
1887 1991
1887 1993
1887 1995
1887 1998
1888 1897
1888 1913
1888 1924
1888 1940
1888 1942
1888 1947
1888 1949
1888 1952
1888 1953
1888 1955
1888 1960
1888 1969
1889 1918
1889 1926
1889 1951
1889 1956
1889 1957
1889 1975
1889 1978
1889 1983
1889 1992
1889 1993
1890 1891
1890 1899
1890 1900
1890 1908
1890 1915
1890 1944
1890 1948
1890 1956
1890 1972
1890 1983
1891 1900
1891 1902
1891 1908
1891 1910
1891 1911
1891 1913
1891 1917
1891 1935
1891 1953
1891 1955
1891 1962
1891 1963
1891 1964
1891 1983
1891 1984
1891 1989
1891 1992
1892 1922
1892 1924
1892 1941
1892 1964
1892 1967
1892 1973
1892 1980
1892 1989
1892 1995
1892 1996
1893 1897
1893 1921
1893 1928
1893 1934
1893 1974
1893 1977
1893 1980
1893 1988
1894 1895
1894 1909
1894 1914
1894 1918
1894 1929
1894 1945
1894 1947
1894 1948
1894 1966
1894 1968
1894 1973
1894 1978
1894 1995
1895 1902
1895 1922
1895 1931
1895 1940
1895 1958
1895 1964
1895 1987
1896 1901
1896 1916
1896 1918
1896 1955
1896 1960
1896 1962
1896 1966
1896 1968
1896 1989
1896 1996
1897 1906
1897 1922
1897 1935
1897 1936
1897 1943
1897 1948
1897 1950
1897 1952
1897 1989
1897 1991
1898 1917
1898 1926
1898 1930
1898 1932
1898 1937
1898 1955
1898 1985
1898 1986
1898 1993
1898 1995
1899 1910
1899 1922
1899 1931
1899 1940
1899 1949
1899 1962
1899 1973
1899 1979
1899 1983
1900 1906
1900 1911
1900 1926
1900 1933
1900 1953
1900 1956
1900 1959
1900 1983
1900 1997
1901 1903
1901 1909
1901 1924
1901 1939
1901 1949
1901 1951
1901 1969
1901 1987
1901 1990
1901 1992
1901 1994
1902 1905
1902 1907
1902 1967
1902 1969
1902 1971
1903 1924
1903 1962
1903 1978
1903 1980
1903 1984
1903 1986
1903 1993
1903 1996
1904 1913
1904 1917
1904 1947
1904 1961
1904 1988
1904 1991
1904 1992
1904 1994
1904 1996
1904 1998
1905 1915
1905 1922
1905 1925
1905 1931
1905 1938
1905 1985
1905 1991
1905 1992
1906 1913
1906 1926
1906 1934
1906 1953
1906 1954
1906 1966
1906 1968
1907 1935
1907 1966
1907 1980
1907 1987
1907 1993
1908 1944
1908 1949
1908 1956
1908 1989
1908 1990
1908 1994
1908 1996
1909 1911
1909 1913
1909 1915
1909 1932
1909 1939
1909 1948
1909 1977
1909 1998
1909 1999
1910 1912
1910 1925
1910 1931
1910 1936
1910 1942
1910 1944
1910 1958
1910 1967
1910 1968
1910 1987
1911 1921
1911 1938
1911 1940
1911 1960
1911 1971
1911 1982
1911 1990
1911 1998
1912 1915
1912 1930
1912 1936
1912 1948
1912 1951
1912 1968
1912 1991
1912 1994
1913 1952
1913 1954
1913 1957
1913 1958
1913 1976
1913 1985
1913 1993
1913 1995
1914 1925
1914 1926
1914 1931
1914 1935
1914 1938
1914 1940
1914 1949
1914 1951
1914 1953
1914 1954
1914 1956
1914 1962
1914 1976
1914 1981
1914 1986
1914 1988
1915 1925
1915 1929
1915 1965
1915 1969
1915 1985
1916 1917
1916 1918
1916 1922
1916 1932
1916 1940
1916 1942
1916 1949
1916 1953
1916 1959
1916 1964
1916 1966
1916 1968
1916 1984
1916 1988
1916 1994
1916 1997
1917 1919
1917 1924
1917 1928
1917 1946
1917 1956
1917 1958
1917 1960
1917 1969
1917 1996
1918 1926
1918 1927
1918 1930
1918 1935
1918 1939
1918 1989
1919 1926
1919 1935
1919 1939
1919 1949
1919 1951
1919 1963
1919 1968
1919 1976
1919 1981
1919 1996
1920 1922
1920 1942
1920 1944
1920 1945
1920 1949
1920 1986
1920 1987
1921 1923
1921 1937
1921 1941
1921 1952
1921 1956
1921 1979
1921 1980
1921 1991
1922 1926
1922 1954
1922 1957
1922 1970
1923 1957
1923 1966
1923 1971
1923 1977
1923 1978
1923 1980
1923 1988
1924 1933
1924 1936
1924 1945
1924 1953
1924 1970
1924 1983
1925 1942
1925 1943
1925 1950
1925 1985
1926 1939
1926 1940
1926 1944
1926 1946
1926 1965
1926 1972
1926 1973
1926 1974
1926 1977
1926 1979
1926 1992
1926 1993
1926 1994
1927 1938
1927 1965
1927 1975
1927 1993
1927 1995
1927 1998
1927 1999
1928 1947
1928 1962
1928 1963
1928 1964
1928 1967
1928 1987
1928 1988
1928 1991
1928 1995
1929 1973
1929 1978
1929 1985
1930 1936
1930 1945
1930 1952
1930 1959
1930 1985
1930 1993
1930 1998
1930 1999
1931 1934
1931 1935
1931 1950
1931 1956
1931 1959
1931 1987
1931 1991
1931 1994
1932 1942
1932 1949
1932 1968
1932 1969
1932 1970
1932 1977
1932 1991
1933 1934
1933 1940
1933 1944
1933 1957
1933 1960
1933 1969
1934 1936
1934 1942
1934 1957
1934 1960
1934 1969
1934 1977
1934 1992
1935 1937
1935 1945
1935 1967
1936 1947
1936 1986
1937 1957
1937 1975
1937 1984
1937 1989
1938 1976
1939 1942
1939 1951
1939 1952
1939 1956
1939 1958
1939 1964
1939 1967
1939 1969
1939 1978
1939 1983
1939 1999
1940 1944
1940 1984
1940 1990
1940 1997
1941 1946
1941 1952
1941 1962
1941 1986
1942 1971
1942 1976
1942 1992
1943 1944
1943 1962
1943 1963
1943 1979
1944 1945
1944 1952
1944 1960
1944 1962
1944 1968
1944 1972
1944 1982
1944 1988
1945 1951
1945 1953
1945 1960
1945 1975
1946 1971
1946 1981
1946 1994
1947 1960
1947 1963
1947 1972
1947 1974
1948 1962
1948 1989
1949 1963
1949 1972
1949 1979
1949 1981
1949 1989
1949 1990
1949 1994
1949 1998
1950 1963
1950 1970
1950 1998
1951 1954
1951 1955
1951 1963
1951 1975
1951 1979
1951 1981
1951 1985
1952 1981
1952 1984
1952 1998
1952 1999
1953 1959
1953 1963
1953 1968
1953 1970
1953 1978
1954 1968
1954 1974
1954 1978
1955 1987
1956 1973
1956 1979
1956 1984
1957 1961
1957 1962
1957 1963
1957 1969
1957 1980
1957 1991
1957 1996
1958 1963
1958 1976
1958 1983
1958 1984
1958 1992
1959 1963
1959 1968
1959 1974
1959 1976
1959 1997
1960 1963
1960 1997
1961 1967
1961 1988
1961 1994
1961 1997
1962 1979
1962 1983
1962 1999
1963 1967
1963 1971
1963 1972
1963 1984
1963 1990
1963 1997
1964 1981
1964 1984
1964 1991
1964 1994
1964 1999
1965 1966
1965 1978
1965 1997
1966 1989
1966 1991
1966 1993
1966 1998
1967 1969
1967 1970
1967 1972
1967 1977
1967 1990
1968 1982
1969 1973
1969 1996
1969 1999
1970 1974
1970 1979
1970 1981
1970 1998
1971 1979
1971 1982
1971 1983
1971 1985
1972 1985
1972 1988
1972 1989
1972 1996
1972 1999
1973 1976
1973 1979
1973 1982
1973 1993
1974 1976
1975 1977
1975 1979
1975 1980
1975 1990
1976 1989
1977 1984
1978 1991
1978 1992
1979 1988
1980 1983
1980 1994
1981 1992
1982 1996
1983 1987
1983 1992
1984 1988
1984 1992
1984 1995
1985 1995
1987 1988
1987 1996
1988 1992
1988 1993
1988 1996
1988 1997
1989 1990
1989 1995
1989 1996
1990 1995
1991 1993
1993 1994
1993 1996
1994 1998
1995 1996