# Nodes: 3000
0 37
0 86
1 67
1 70
1 83
1 132
2 60
2 104
2 470
3 23
3 87
3 135
3 1559
4 9
4 26
4 58
7 18
7 132
7 148
8 68
9 45
9 113
11 75
11 130
11 1263
12 32
12 105
12 2191
14 56
14 127
15 64
15 144
16 21
16 149
16 2325
17 1931
19 70
19 141
20 69
21 23
22 127
23 114
23 131
24 31
24 113
25 1871
26 462
28 57
28 83
28 94
30 50
30 479
31 34
32 45
32 56
32 62
33 45
34 131
35 122
36 40
36 94
38 65
39 93
39 122
42 52
43 237
44 129
45 2329
46 68
46 125
46 140
47 67
47 117
47 131
48 1266
48 1690
49 114
49 134
50 101
52 1915
53 1543
54 118
54 146
56 79
56 1348
57 86
57 1256
58 70
59 65
59 80
59 86
59 102
59 121
60 98
60 149
61 143
61 2468
62 109
64 99
65 106
65 125
65 132
65 136
65 367
66 108
66 149
67 75
67 110
69 912
70 1811
71 395
74 125
74 130
75 2700
75 2991
76 100
78 116
79 716
80 93
82 111
84 400
84 1028
85 90
85 130
86 707
87 130
89 112
92 1618
94 100
94 102
95 143
96 143
96 1580
96 1759
97 929
99 343
99 1527
102 122
102 130
103 115
105 140
106 123
107 2381
109 121
112 2414
113 137
116 2595
116 2717
118 146
118 148
120 135
120 148
120 2407
124 1564
125 1276
127 130
127 142
128 137
131 145
133 1957
140 141
141 2560
147 1377
148 1178
150 271
151 182
152 245
152 254
153 223
154 209
155 158
155 851
157 200
157 209
157 253
157 273
157 1921
158 208
160 207
160 240
161 294
162 258
163 171
163 186
164 167
164 168
166 259
166 1824
167 2235
169 187
169 199
169 202
170 197
170 290
172 235
172 260
172 264
173 272
174 200
175 244
176 258
176 299
177 210
178 199
178 247
178 248
178 295
179 185
179 217
179 227
179 246
179 1149
180 192
180 242
180 278
180 1595
181 279
182 194
182 208
182 369
183 210
185 203
185 204
185 208
185 252
185 256
186 205
186 216
187 249
188 200
188 787
189 2519
190 221
190 251
190 2528
191 260
191 294
193 200
193 286
193 296
194 219
194 240
194 798
195 703
195 2101
197 216
197 267
198 295
199 221
200 212
200 239
201 227
201 267
201 440
202 962
204 209
204 272
204 830
205 259
207 210
208 249
209 288
211 251
211 1491
212 232
214 264
215 249
219 242
220 291
220 1719
222 293
222 2552
227 291
228 231
228 288
231 264
231 288
232 840
233 1201
234 292
234 1934
235 279
237 2682
239 951
239 2912
241 2125
244 251
245 259
245 1908
246 1430
247 269
248 259
248 392
249 269
249 1747
251 297
252 290
252 2193
253 287
253 2302
254 294
254 1689
255 990
255 1723
256 1708
260 290
261 292
262 276
264 408
271 296
276 671
276 705
277 2517
280 297
283 295
285 288
287 293
288 290
288 2708
292 791
292 2543
294 2859
297 2896
300 422
301 305
301 324
301 432
302 322
303 365
303 386
303 433
304 334
304 364
306 415
308 359
309 354
309 364
309 439
310 1178
310 2866
311 420
312 342
315 339
315 429
315 439
316 331
316 422
317 430
317 1027
318 393
318 2429
319 384
319 410
320 396
321 369
322 339
322 341
322 390
323 423
324 364
324 386
324 425
324 558
325 363
325 396
326 1588
327 440
328 392
328 433
328 2577
329 399
329 997
330 2707
331 407
331 422
331 433
331 443
333 342
333 378
333 444
334 351
334 359
334 392
334 400
334 432
336 368
337 339
337 355
338 374
338 391
339 358
339 445
339 1902
340 399
341 375
341 2322
344 438
345 826
345 1735
346 349
346 837
348 2160
350 373
350 438
352 382
353 384
354 404
355 356
356 441
358 443
359 362
359 389
360 375
361 392
362 696
365 440
366 441
367 384
367 441
368 376
368 406
370 784
371 857
373 427
373 439
373 2639
374 632
374 1407
375 405
375 421
376 444
377 946
378 435
379 423
381 395
381 407
383 2657
385 414
385 417
386 428
387 408
388 412
389 444
389 899
391 444
392 432
394 472
394 794
395 426
397 437
398 424
401 419
403 424
403 445
407 425
410 466
411 431
412 442
413 417
415 418
416 529
419 432
421 547
423 2230
424 448
428 441
428 442
430 505
433 808
435 448
435 1860
439 442
441 2894
448 449
448 1765
450 582
451 456
451 458
453 458
453 473
453 500
454 575
455 480
455 582
457 463
457 539
458 559
459 492
459 530
459 534
459 577
460 509
462 518
462 530
463 2041
464 481
464 1025
465 528
466 501
466 599
467 569
468 487
468 563
468 596
468 1598
471 516
473 484
473 594
474 492
474 1935
475 539
476 490
476 543
476 1189
478 792
479 539
480 490
482 2380
485 578
486 499
486 543
486 585
487 599
490 491
490 511
491 501
492 517
493 522
493 547
494 517
494 566
494 586
494 599
495 552
496 499
497 511
498 542
498 595
498 874
499 564
500 530
500 539
500 582
500 598
506 520
507 539
508 515
509 566
510 583
511 564
512 555
514 536
514 571
514 591
515 562
515 571
515 2812
516 550
517 549
518 519
518 589
518 597
519 539
520 525
520 587
521 538
521 540
521 563
523 532
523 551
524 594
526 589
527 556
527 598
527 2644
529 575
529 1224
531 533
531 577
531 581
532 538
533 564
534 1318
537 2987
538 541
538 2870
539 582
540 554
540 590
542 561
542 1464
543 597
545 547
553 2585
554 556
556 580
557 595
560 578
560 1911
561 585
561 976
567 585
569 2401
571 581
573 576
579 636
579 2074
579 2193
580 1037
586 846
586 2052
592 2876
593 595
598 2585
600 695
600 893
602 2946
603 2176
605 631
605 733
606 660
607 701
607 722
607 745
608 692
608 699
609 623
609 626
609 694
610 1014
611 615
611 739
612 626
613 749
614 618
614 639
616 658
616 665
616 668
616 691
616 2030
617 715
617 880
618 664
618 717
618 1001
619 728
619 2102
620 746
622 733
623 627
623 718
623 738
627 664
628 701
628 702
629 749
630 707
630 749
632 699
632 722
633 1298
634 732
634 2675
636 639
636 665
636 742
637 639
637 718
638 654
639 680
639 735
640 665
640 2510
641 643
642 672
642 688
644 662
645 874
645 1034
646 661
646 702
646 889
648 654
649 1346
650 664
650 682
650 734
651 652
653 869
654 717
654 730
655 726
656 686
656 740
657 692
657 742
658 726
659 662
660 695
660 736
661 720
662 713
663 747
664 689
665 685
665 701
665 1722
666 732
666 742
667 1302
670 742
671 724
671 1296
672 684
672 730
672 734
672 2396
673 739
673 1508
674 691
674 700
674 727
676 2479
677 733
678 722
679 714
681 690
681 698
681 2550
682 695
685 2763
686 2957
688 716
690 1645
692 2644
694 1153
700 1296
701 706
701 1335
702 1453
704 732
705 747
706 747
707 771
708 1148
712 741
712 1410
713 717
713 1990
715 1793
717 2084
721 2438
722 731
723 731
724 1788
726 1983
727 741
728 743
729 2556
732 1740
733 2787
739 1023
743 749
743 1997
746 2424
747 748
749 833
750 772
750 838
750 890
751 790
751 855
751 2184
752 816
752 865
752 1025
753 813
754 762
754 876
755 787
756 2433
757 770
757 828
757 871
758 782
758 898
759 779
759 802
759 869
759 873
760 865
760 894
762 810
762 874
763 2345
765 780
766 834
766 890
767 793
768 772
768 781
768 852
768 880
769 786
769 792
769 882
769 896
770 829
770 845
770 881
771 843
771 881
773 775
773 891
775 785
775 820
775 825
775 851
777 1345
778 781
778 871
779 860
780 860
780 1330
780 1736
781 849
784 798
785 846
785 1195
786 847
786 1442
787 837
789 790
789 1211
791 824
791 838
791 871
793 890
794 824
795 899
795 1441
796 851
797 814
797 843
797 864
797 883
797 2211
798 832
798 885
799 805
799 845
800 2504
805 1066
806 811
808 820
809 845
809 890
810 855
812 872
812 1292
812 1668
813 884
814 868
814 889
816 874
816 877
816 897
820 844
822 867
823 832
823 857
823 1559
824 861
824 878
824 889
824 1835
825 2049
826 841
826 856
826 871
827 2986
828 853
828 864
828 881
828 1563
828 2298
829 842
830 888
831 847
832 846
833 845
833 1396
835 856
835 889
837 882
837 889
837 1308
838 2954
839 2193
840 1572
841 1765
842 909
843 847
845 2107
846 1758
847 899
847 2936
850 1571
851 1125
852 899
853 894
856 886
857 885
859 1069
860 867
863 876
864 872
865 884
867 877
867 899
875 892
879 886
881 1429
892 2600
898 2392
898 2765
900 915
900 957
900 964
901 1564
901 1700
902 908
902 948
902 1008
905 979
905 1042
906 997
906 1049
907 981
908 991
909 940
910 947
910 966
910 1026
911 914
911 931
911 964
912 990
912 1043
912 1431
913 1028
914 1022
915 927
916 939
916 1001
919 942
919 951
919 995
920 1042
921 953
921 1666
922 986
924 947
924 1031
924 2931
925 987
926 1815
927 1000
928 982
929 949
930 945
931 981
931 994
933 959
933 960
933 1804
934 1001
935 952
935 964
936 971
936 991
936 993
938 940
940 958
940 1020
941 966
942 1250
943 975
944 1035
944 1039
945 957
945 1008
945 2181
946 1011
946 1044
948 951
948 981
948 988
949 1007
949 1159
950 994
951 1004
952 1007
952 1016
952 1026
953 980
953 991
953 1034
954 968
955 1033
955 1128
956 1018
957 972
957 1036
958 1018
959 1028
959 1308
959 2244
961 1015
962 1078
964 2454
965 1048
970 1027
972 997
973 2657
974 1015
976 1044
978 989
981 1027
984 1048
985 1041
985 1046
987 1958
988 1005
989 990
991 1173
992 1032
992 1039
996 1046
999 1199
1005 1974
1006 1020
1008 1026
1010 2099
1012 1038
1014 2466
1015 1017
1017 1037
1023 1026
1025 1042
1026 1588
1027 1041
1029 1036
1030 1031
1030 1036
1031 1930
1035 1040
1035 2527
1039 2022
1042 2683
1047 2949
1050 1161
1050 1186
1051 1181
1052 1133
1053 1080
1054 1181
1054 2960
1055 1061
1055 1103
1056 1120
1057 1083
1057 1129
1057 1175
1058 1139
1058 1174
1058 1182
1059 1139
1059 1177
1060 1156
1060 1706
1062 1089
1062 1180
1063 1128
1064 1075
1065 2214
1065 2334
1067 1090
1067 1126
1067 1179
1068 1111
1070 1093
1070 1173
1071 1155
1071 1190
1072 1148
1072 1161
1073 1148
1074 1180
1074 1198
1074 2407
1075 1111
1075 1124
1075 1168
1075 2433
1076 1189
1077 1165
1078 1157
1078 1199
1079 1661
1080 1196
1082 1105
1082 1142
1082 1158
1083 1086
1083 1115
1083 1136
1084 1113
1084 1132
1084 1195
1084 1869
1084 2332
1086 1161
1086 1177
1088 1191
1089 1113
1089 1125
1089 1143
1089 1181
1089 2296
1090 2842
1091 1130
1091 1179
1091 1184
1091 1857
1092 1100
1092 1152
1092 1171
1092 1184
1093 1163
1094 1122
1094 1132
1095 1115
1095 1147
1095 1987
1097 1169
1099 1107
1100 1110
1100 1127
1100 1141
1100 1146
1101 1124
1101 1142
1102 1186
1103 1142
1105 1397
1105 1800
1107 1187
1108 1160
1108 1179
1109 1265
1109 2290
1111 1188
1112 1120
1113 1117
1113 1127
1113 1137
1113 1168
1113 2963
1114 1178
1114 2348
1115 1127
1115 2912
1117 1193
1120 1163
1120 1174
1120 1186
1121 1152
1122 1136
1122 2007
1123 1195
1124 2029
1124 2568
1126 1140
1126 1188
1128 1131
1129 1178
1131 1152
1132 1152
1132 1184
1132 1187
1132 1199
1133 1194
1134 1156
1134 1199
1136 2294
1138 2711
1139 1160
1139 1199
1142 1194
1142 2720
1144 1524
1144 1880
1147 1161
1149 1178
1150 1170
1151 2511
1152 1187
1153 1163
1154 1159
1158 1189
1159 1171
1161 1402
1163 1172
1163 1183
1164 1194
1169 1170
1174 1196
1176 1185
1177 1187
1177 1667
1179 1187
1181 2749
1182 2821
1183 1195
1188 1195
1188 2852
1191 2197
1192 1932
1192 2563
1199 1853
1199 2506
1200 1306
1200 1311
1200 1338
1201 1251
1201 1259
1201 1270
1202 1331
1202 1466
1203 1274
1203 1305
1203 1312
1204 1273
1204 1306
1206 1301
1206 1321
1206 1322
1206 1342
1207 1266
1208 1292
1211 1238
1212 1268
1212 1301
1212 1327
1213 1230
1213 1295
1213 2815
1214 2969
1215 1253
1216 1274
1216 1338
1217 1282
1217 1316
1218 1231
1218 1335
1219 1243
1220 1282
1222 1266
1222 1276
1222 1341
1222 2454
1225 1275
1225 1308
1226 1326
1226 2701
1228 1229
1228 1318
1228 2100
1234 1273
1235 1264
1235 1289
1235 1319
1236 1251
1236 1284
1236 1313
1237 1275
1237 1321
1238 1625
1240 1245
1241 1268
1241 1305
1241 1332
1241 1344
1241 1346
1241 1668
1242 1246
1242 1248
1242 1289
1242 1349
1244 1267
1244 1293
1244 1298
1245 1292
1245 2338
1247 1334
1248 1297
1248 1306
1248 1326
1249 1292
1252 1304
1252 2460
1253 1330
1255 2771
1257 1335
1259 1314
1261 1311
1261 1748
1262 2121
1264 1338
1266 1295
1267 1299
1268 1336
1269 1345
1270 1278
1271 1275
1271 1324
1272 1301
1273 1309
1273 1310
1276 1304
1277 1310
1279 1319
1280 1312
1282 2962
1284 1299
1284 1314
1286 1291
1288 1305
1288 1329
1288 2878
1289 1294
1289 1333
1289 1347
1290 1325
1290 1967
1292 1338
1292 1485
1294 1296
1294 1343
1296 1326
1296 1348
1297 1346
1299 1316
1300 1316
1300 1347
1302 1319
1302 1321
1302 1393
1304 1309
1305 1306
1306 1326
1311 1333
1311 1541
1314 1331
1318 2105
1320 2493
1322 2700
1323 1329
1326 1334
1329 1337
1330 1335
1331 1342
1331 2555
1333 1837
1342 1917
1345 2369
1348 1600
1350 1354
1350 1485
1351 1397
1351 1450
1352 1423
1353 1419
1353 1431
1353 1481
1353 1490
1356 1370
1357 1363
1359 1437
1359 1458
1362 1383
1362 2646
1365 1422
1366 1401
1366 1418
1368 1406
1370 1425
1370 1490
1370 2180
1372 1392
1372 1461
1372 1485
1372 1499
1373 1404
1373 1492
1375 1493
1376 1383
1378 1435
1380 1421
1380 1474
1381 1455
1381 1463
1381 1469
1383 1471
1384 1387
1384 1483
1384 1496
1385 1398
1387 1769
1388 1444
1389 1398
1390 1421
1390 1494
1390 1836
1391 1428
1391 1448
1391 1486
1392 1458
1395 1414
1395 1480
1395 1487
1396 1414
1396 1423
1397 1407
1398 1409
1399 1497
1400 1487
1402 1475
1403 1407
1403 1472
1403 1703
1404 1409
1404 1414
1404 1430
1404 1456
1405 1487
1406 1451
1406 1480
1407 1472
1407 1495
1408 1456
1410 1480
1413 1488
1414 1472
1416 1418
1416 1443
1416 2510
1417 1484
1418 1427
1418 1491
1418 2394
1420 1429
1421 1428
1421 1476
1421 1908
1422 1461
1422 1497
1422 2809
1423 1446
1423 1472
1423 2376
1425 1453
1425 1488
1426 1477
1426 1479
1427 1429
1428 1453
1428 2951
1429 1467
1429 1755
1429 2790
1430 1432
1430 1535
1432 1448
1432 1481
1436 1474
1438 1471
1438 1472
1439 1440
1439 1442
1441 2431
1442 1495
1444 1497
1444 2350
1447 1471
1452 1477
1452 1481
1452 1484
1452 1496
1454 2348
1456 1458
1463 1492
1463 2569
1465 1470
1468 1481
1470 1487
1472 1700
1473 1476
1476 1922
1478 1499
1487 1498
1488 1495
1491 2219
1492 1663
1494 1550
1501 1615
1501 1621
1502 1550
1502 1630
1502 1969
1502 2116
1503 1648
1504 1531
1505 1517
1505 1619
1508 1538
1509 1552
1509 1588
1510 1565
1510 2673
1511 1534
1512 1555
1513 1604
1513 1608
1513 1610
1514 1570
1514 1597
1515 1565
1515 1606
1515 2003
1517 1620
1518 1574
1518 1602
1518 1604
1519 1549
1520 1598
1520 1631
1521 1534
1522 1536
1522 1618
1523 1645
1525 1644
1527 1552
1527 1558
1527 1566
1527 1572
1527 1621
1528 1547
1528 1565
1528 1589
1528 1590
1529 1615
1531 1544
1532 1538
1533 1547
1533 1625
1536 1619
1537 1584
1537 1646
1538 1641
1538 2778
1541 1576
1542 1570
1543 1588
1543 1628
1544 1601
1544 1602
1544 1620
1545 1598
1546 1549
1546 1588
1547 1556
1548 1635
1549 1569
1549 1585
1549 1614
1549 1633
1551 1558
1552 1569
1552 1617
1552 2234
1553 1642
1555 1603
1555 1635
1556 1572
1556 1589
1558 1611
1558 2192
1560 1607
1568 1575
1568 1634
1568 2905
1569 1577
1571 1572
1573 1595
1573 1605
1573 1619
1573 1635
1574 1587
1576 1579
1577 1594
1577 1625
1579 1585
1579 1646
1580 1616
1584 1645
1591 1620
1591 1627
1591 1642
1592 1629
1594 1599
1595 1611
1595 1626
1596 1643
1598 1629
1601 2011
1602 1603
1602 1632
1602 2461
1604 1618
1604 1631
1605 1648
1606 1622
1609 2176
1613 1939
1614 1615
1618 1640
1624 1647
1627 1642
1627 1648
1631 2250
1634 1638
1650 1796
1651 1695
1651 1780
1651 1832
1652 1663
1652 1673
1653 1689
1653 1772
1653 2860
1654 1676
1654 1690
1655 1745
1655 1752
1657 1663
1658 1745
1658 2114
1659 1794
1660 1770
1660 1777
1664 1681
1664 1705
1664 1744
1664 1754
1666 1694
1666 1765
1666 1789
1666 1915
1667 1672
1672 1694
1673 1746
1674 1720
1674 1738
1674 1824
1675 1702
1676 1706
1677 1728
1677 1738
1677 1751
1678 1726
1679 1753
1680 1694
1680 1738
1681 1771
1683 1703
1684 1706
1685 1782
1685 1796
1686 1751
1686 1752
1686 1894
1687 1763
1687 1785
1688 1694
1688 1712
1690 1781
1690 2177
1693 1787
1694 1706
1694 1779
1696 1711
1696 1762
1697 1722
1697 1774
1697 1791
1698 1789
1699 1728
1700 1733
1700 1734
1700 1759
1700 1778
1702 1749
1703 1779
1704 1786
1706 1773
1707 1749
1708 1787
1709 1714
1709 1716
1710 1789
1711 1724
1712 1720
1718 1767
1721 1726
1722 2332
1722 2812
1724 1759
1724 2389
1726 1757
1731 1736
1731 1754
1732 1739
1732 1751
1732 1754
1735 1753
1737 1785
1737 1895
1739 1750
1739 2390
1740 1785
1741 1796
1746 1755
1746 1783
1752 1787
1755 1762
1755 1772
1756 1775
1757 1760
1760 1779
1761 2132
1762 2048
1765 1785
1769 1903
1770 1779
1777 1794
1781 1782
1782 1847
1784 1793
1784 2101
1787 2632
1790 1795
1793 2741
1794 1795
1800 1810
1800 1835
1801 1844
1802 1934
1803 1806
1803 1836
1804 1908
1805 1894
1805 1899
1805 2883
1806 1818
1807 1866
1807 1930
1809 1846
1809 1894
1810 1848
1810 1913
1810 1921
1811 1859
1811 1931
1812 1920
1812 1942
1812 2124
1813 1832
1813 1909
1813 2216
1814 1896
1818 1874
1818 1914
1820 1901
1822 1921
1822 2730
1823 1846
1823 1872
1824 1836
1824 1874
1825 1826
1825 1836
1825 1864
1826 1941
1827 1851
1827 1868
1827 1882
1828 1875
1828 1883
1828 1900
1828 1934
1829 1885
1830 1838
1831 1843
1831 1934
1832 1905
1834 1902
1836 1913
1837 1870
1838 1884
1838 1899
1838 1921
1839 1840
1839 1856
1840 1869
1840 1903
1840 1906
1841 1924
1842 1894
1842 2807
1843 1854
1847 1947
1849 1859
1849 1919
1852 1936
1853 1922
1853 1932
1853 2338
1855 1882
1856 1878
1857 1884
1857 1919
1858 1886
1862 1868
1862 1930
1863 1937
1863 2150
1864 1876
1864 1888
1865 1916
1866 1886
1866 1941
1867 1907
1867 1913
1868 2741
1869 1905
1872 1901
1872 1913
1874 1899
1874 1930
1875 1897
1880 1906
1884 1900
1885 1910
1890 1891
1895 2854
1896 2776
1897 1917
1897 1947
1899 1931
1901 1935
1901 2976
1902 1927
1903 1915
1903 1925
1904 1925
1905 2909
1919 1936
1920 1939
1921 1945
1922 1925
1926 1948
1930 1931
1939 1943
1951 2022
1953 1991
1954 1965
1956 1962
1957 2065
1957 2079
1957 2099
1958 1974
1961 1981
1961 2095
1962 1986
1963 1987
1963 2044
1964 2067
1966 2076
1968 2006
1971 1986
1971 2072
1972 2090
1972 2417
1973 2009
1973 2029
1975 2045
1976 2024
1976 2077
1976 2092
1977 1978
1978 2781
1980 2009
1980 2055
1980 2089
1981 2000
1982 2032
1983 2058
1984 2033
1984 2045
1984 2064
1985 1998
1985 2051
1985 2070
1985 2509
1987 2036
1989 2004
1989 2083
1990 2017
1990 2059
1991 2070
1992 2194
1993 2043
1994 2023
1994 2099
1995 1998
1995 2045
1995 2060
1996 2015
1998 2099
1999 2001
2000 2047
2001 2045
2003 2054
2004 2047
2006 2081
2008 2012
2009 2021
2010 2082
2011 2047
2012 2013
2014 2044
2014 2049
2015 2070
2016 2075
2016 2082
2019 2039
2021 2064
2023 2063
2023 2068
2024 2034
2024 2048
2025 2095
2027 2056
2027 2089
2030 2085
2032 2068
2033 2057
2033 2075
2035 2041
2035 2053
2035 2084
2037 2050
2037 2778
2039 2054
2039 2071
2041 2060
2041 2136
2042 2065
2046 2083
2046 2090
2048 2071
2049 2070
2049 2075
2050 2098
2051 2093
2056 2061
2058 2071
2059 2063
2061 2086
2063 2073
2067 2083
2077 2508
2081 2096
2081 2097
2086 2977
2091 2797
2100 2106
2100 2167
2100 2216
2103 2129
2103 2235
2104 2180
2104 2227
2105 2135
2105 2172
2105 2207
2107 2206
2108 2144
2108 2148
2110 2779
2111 2127
2111 2145
2112 2114
2112 2116
2112 2141
2112 2159
2113 2173
2114 2203
2117 2205
2118 2630
2120 2201
2121 2187
2122 2137
2122 2183
2122 2229
2123 2145
2123 2147
2124 2151
2125 2185
2125 2247
2126 2182
2126 2192
2127 2186
2128 2245
2129 2683
2130 2149
2130 2164
2130 2212
2130 2213
2130 2226
2130 2236
2130 2349
2131 2156
2136 2186
2136 2219
2136 2443
2137 2190
2137 2249
2138 2245
2140 2162
2141 2216
2142 2247
2143 2145
2143 2165
2143 2208
2143 2244
2143 2246
2146 2159
2147 2187
2148 2169
2149 2238
2151 2229
2151 2242
2153 2157
2154 2207
2157 2195
2157 2204
2158 2211
2159 2212
2159 2241
2161 2162
2163 2238
2164 2216
2165 2168
2165 2217
2166 2171
2167 2215
2170 2246
2171 2191
2171 2245
2171 2465
2174 2220
2177 2195
2179 2226
2180 2241
2183 2208
2184 2236
2185 2199
2186 2195
2188 2223
2188 2243
2189 2204
2189 2234
2190 2229
2191 2495
2192 2229
2195 2218
2197 2223
2206 2223
2212 2219
2215 2234
2218 2226
2233 2239
2234 2246
2239 2388
2250 2274
2251 2260
2251 2311
2251 2370
2252 2273
2252 2414
2253 2317
2253 2320
2253 2359
2253 2372
2254 2385
2254 2399
2255 2287
2255 2357
2255 2381
2255 2382
2256 2383
2258 2259
2258 2363
2259 2281
2259 2305
2260 2318
2260 2689
2261 2361
2262 2287
2262 2294
2262 2398
2263 2340
2264 2273
2264 2393
2264 2395
2268 2269
2268 2398
2270 2277
2271 2285
2272 2375
2274 2279
2275 2282
2275 2387
2275 2397
2276 2278
2276 2291
2278 2353
2278 2381
2279 2296
2279 2341
2279 2356
2281 2495
2286 2346
2288 2298
2288 2306
2288 2368
2289 2299
2289 2359
2289 2398
2290 2356
2291 2296
2291 2331
2293 2340
2294 2295
2294 2370
2295 2313
2295 2354
2296 2383
2297 2298
2298 2350
2301 2306
2301 2373
2301 2391
2303 2333
2305 2340
2305 2374
2306 2331
2306 2390
2306 2668
2310 2371
2311 2356
2312 2349
2312 2369
2313 2398
2315 2339
2317 2375
2318 2395
2320 2326
2320 2342
2321 2332
2325 2359
2328 2373
2329 2360
2330 2391
2332 2366
2336 2690
2337 2359
2337 2370
2340 2372
2340 2380
2340 2387
2342 2374
2342 2389
2344 2382
2347 2374
2347 2390
2349 2753
2350 2360
2354 2871
2356 2357
2360 2363
2360 2770
2362 2388
2373 2382
2374 2381
2374 2390
2378 2392
2380 2384
2382 2391
2382 2818
2384 2389
2401 2521
2402 2502
2404 2492
2404 2538
2405 2409
2405 2420
2405 2504
2406 2414
2406 2461
2406 2536
2407 2486
2408 2452
2408 2492
2408 2542
2409 2437
2409 2441
2409 2449
2410 2499
2410 2500
2410 2549
2411 2478
2412 2446
2414 2450
2414 2456
2414 2484
2414 2536
2415 2443
2415 2533
2416 2532
2417 2432
2418 2423
2418 2433
2418 2461
2418 2496
2418 2500
2418 2616
2420 2504
2421 2498
2422 2477
2422 2547
2423 2442
2423 2538
2424 2530
2425 2535
2426 2429
2426 2514
2426 2534
2427 2482
2427 2499
2427 2522
2428 2462
2428 2526
2429 2523
2429 2546
2431 2443
2431 2535
2432 2464
2432 2515
2432 2527
2432 2539
2433 2517
2434 2505
2436 2525
2437 2510
2438 2440
2438 2610
2439 2506
2439 2525
2440 2489
2442 2545
2443 2502
2444 2497
2445 2547
2445 2548
2446 2490
2446 2499
2448 2511
2450 2472
2450 2493
2450 2499
2450 2540
2451 2529
2452 2480
2452 2485
2452 2513
2453 2533
2454 2455
2455 2518
2455 2545
2456 2510
2457 2504
2458 2462
2458 2500
2459 2464
2460 2489
2461 2491
2461 2494
2461 2528
2463 2474
2464 2479
2465 2494
2467 2470
2469 2536
2471 2479
2473 2476
2474 2505
2475 2495
2478 2512
2479 2513
2481 2515
2482 2496
2484 2529
2485 2515
2487 2540
2488 2523
2490 2528
2491 2509
2491 2517
2495 2507
2496 2531
2496 2533
2499 2524
2499 2538
2501 2509
2503 2542
2503 2548
2505 2542
2506 2520
2508 2536
2510 2547
2520 2530
2523 2545
2531 2533
2538 2544
2550 2695
2551 2700
2552 2560
2552 2575
2553 2564
2553 2662
2553 2696
2554 2585
2555 2604
2556 2654
2556 2695
2557 2586
2557 2631
2558 2589
2559 2655
2560 2589
2560 2598
2560 2609
2560 2627
2563 2605
2563 2635
2564 2589
2564 2655
2565 2620
2565 2640
2565 2669
2565 2690
2565 2695
2566 2580
2567 2611
2570 2676
2571 2584
2573 2652
2573 2657
2573 2676
2575 2680
2577 2652
2577 2673
2579 2590
2579 2693
2580 2656
2584 2610
2584 2683
2586 2644
2586 2680
2586 2740
2588 2604
2588 2640
2588 2655
2588 2660
2589 2670
2590 2662
2594 2608
2596 2613
2596 2630
2596 2686
2596 2870
2597 2653
2597 2688
2598 2610
2598 2667
2598 2676
2600 2621
2601 2669
2601 2684
2601 2696
2601 2697
2602 2635
2602 2658
2602 2697
2603 2609
2604 2647
2604 2657
2604 2728
2606 2608
2606 2661
2611 2686
2612 2621
2612 2660
2612 2699
2613 2647
2613 2656
2613 2667
2615 2691
2616 2620
2617 2624
2618 2636
2618 2667
2619 2661
2620 2678
2621 2682
2622 2668
2623 2674
2624 2686
2625 2656
2626 2682
2628 2638
2628 2646
2631 2676
2632 2637
2632 2673
2636 2695
2641 2670
2641 2698
2643 2684
2643 2685
2646 2654
2646 2669
2648 2650
2652 2671
2652 2686
2653 2663
2656 2688
2658 2674
2658 2676
2659 2684
2665 2692
2666 2691
2667 2675
2669 2675
2670 2887
2671 2699
2679 2701
2680 2690
2681 2699
2682 2691
2684 2685
2685 2688
2690 2691
2690 2699
2693 2696
2697 2699
2700 2843
2701 2704
2701 2709
2701 2803
2702 2760
2702 2824
2703 2745
2704 2817
2705 2819
2706 2711
2706 2837
2707 2784
2707 2792
2708 2789
2709 2712
2709 2793
2709 2845
2712 2741
2712 2824
2713 2756
2715 2843
2717 2784
2718 2725
2718 2749
2718 2835
2719 2752
2719 2783
2720 2737
2720 2759
2720 2785
2720 2812
2720 2839
2721 2776
2722 2724
2724 2788
2725 2790
2727 2762
2728 2829
2730 2820
2731 2828
2735 2743
2735 2795
2735 2806
2738 2741
2738 2760
2738 2852
2739 2832
2741 2982
2743 2820
2745 2761
2745 2829
2745 2833
2745 2846
2747 2821
2751 2789
2751 2835
2753 2836
2754 2782
2755 2772
2756 2773
2756 2790
2759 2788
2760 2814
2762 2786
2765 2768
2767 2781
2767 2829
2767 2856
2771 2776
2771 2807
2772 2803
2772 2817
2774 2790
2776 2841
2777 2806
2778 2784
2778 2802
2779 2816
2780 2791
2780 2824
2780 2826
2781 2823
2783 2813
2783 2815
2784 2795
2787 2796
2788 2830
2790 2826
2792 2834
2793 2828
2793 2832
2794 2803
2796 2825
2797 2826
2797 2835
2800 2846
2811 2848
2813 2843
2814 2833
2817 2819
2817 2844
2820 2842
2821 2824
2829 2843
2835 2842
2840 2843
2850 2898
2850 2922
2851 2932
2851 2980
2852 2910
2854 2935
2856 2972
2857 2918
2858 2941
2859 2897
2859 2918
2865 2882
2865 2905
2865 2949
2865 2971
2866 2938
2866 2960
2866 2988
2869 2938
2871 2887
2871 2909
2871 2943
2871 2966
2873 2995
2874 2932
2875 2950
2877 2957
2879 2908
2880 2886
2880 2976
2881 2906
2884 2980
2886 2908
2886 2912
2887 2914
2887 2941
2889 2946
2889 2979
2890 2994
2893 2898
2895 2949
2897 2951
2897 2998
2900 2943
2901 2919
2902 2923
2903 2922
2903 2939
2905 2939
2905 2955
2905 2960
2905 2980
2906 2914
2906 2967
2907 2938
2908 2919
2911 2922
2914 2925
2915 2964
2917 2987
2918 2940
2918 2993
2920 2969
2920 2972
2921 2957
2921 2993
2924 2925
2925 2932
2925 2988
2929 2941
2931 2963
2935 2948
2935 2986
2937 2972
2939 2977
2943 2994
2943 2998
2944 2989
2945 2947
2945 2983
2949 2993
2949 2997
2950 2957
2955 2996
2960 2993
2967 2993
2969 2982
2979 2988
2979 2991
2980 2998