0 13
0 18
0 33
0 34
0 35
0 72
0 76
0 91
0 104
0 111
0 175
1 5
1 16
1 40
1 67
1 68
1 70
1 79
1 81
1 99
1 102
1 114
1 123
1 124
1 136
1 138
1 141
1 149
1 179
1 196
1 1191
2 4
2 15
2 18
2 22
2 33
2 34
2 42
2 62
2 70
2 73
2 80
2 83
2 89
2 90
2 102
2 103
2 141
2 142
2 193
2 197
3 17
3 29
3 32
3 33
3 43
3 46
3 56
3 69
3 79
3 93
3 105
3 136
3 147
3 188
3 198
4 8
4 15
4 29
4 78
4 81
4 99
4 114
4 115
4 118
4 121
4 142
4 152
4 154
4 186
4 190
4 954
4 1330
5 14
5 16
5 20
5 27
5 32
5 46
5 49
5 51
5 65
5 67
5 75
5 77
5 78
5 81
5 112
5 113
5 149
5 166
5 167
5 176
5 190
5 199
6 15
6 16
6 25
6 34
6 41
6 43
6 45
6 70
6 88
6 125
6 136
6 140
6 165
6 177
6 180
6 183
6 186
6 188
6 194
6 1880
7 16
7 34
7 56
7 58
7 61
7 70
7 73
7 78
7 85
7 101
7 103
7 113
7 116
7 135
7 145
7 152
7 156
7 158
7 160
7 164
7 176
7 179
7 188
7 191
8 37
8 41
8 44
8 64
8 69
8 81
8 94
8 124
8 143
8 150
8 170
8 172
8 177
9 10
9 12
9 28
9 37
9 40
9 44
9 47
9 64
9 73
9 100
9 112
9 114
9 125
9 127
9 134
9 174
9 179
10 24
10 33
10 49
10 52
10 53
10 54
10 64
10 65
10 74
10 89
10 92
10 94
10 98
10 109
10 125
10 158
10 171
10 177
10 179
10 180
10 186
10 187
10 695
11 17
11 24
11 40
11 49
11 69
11 76
11 118
11 125
11 127
11 133
11 137
11 147
11 152
11 153
11 178
11 183
11 191
12 22
12 38
12 48
12 51
12 55
12 64
12 71
12 80
12 85
12 86
12 135
12 147
12 191
13 27
13 39
13 42
13 50
13 62
13 65
13 91
13 96
13 98
13 102
13 105
13 108
13 109
13 110
13 127
13 139
13 141
13 146
13 147
13 185
13 193
13 196
14 17
14 18
14 20
14 45
14 48
14 51
14 62
14 82
14 127
14 132
14 134
14 143
14 145
14 149
14 164
14 175
14 182
14 190
14 192
14 197
15 16
15 31
15 35
15 36
15 46
15 50
15 59
15 76
15 90
15 94
15 99
15 104
15 108
15 114
15 156
15 164
15 192
16 33
16 44
16 63
16 68
16 99
16 104
16 105
16 120
16 121
16 128
16 142
16 144
16 154
16 169
16 176
16 181
16 190
17 21
17 38
17 59
17 60
17 62
17 67
17 70
17 73
17 82
17 115
17 116
17 123
17 126
17 127
17 135
17 158
17 160
17 165
17 180
17 181
17 182
17 194
17 195
18 41
18 47
18 89
18 92
18 94
18 98
18 99
18 111
18 118
18 131
18 138
18 146
18 161
18 171
18 185
19 22
19 27
19 29
19 41
19 65
19 81
19 83
19 94
19 114
19 116
19 123
19 126
19 127
19 130
19 131
19 134
19 154
19 158
19 162
19 171
19 174
19 178
19 188
20 28
20 29
20 31
20 39
20 44
20 64
20 99
20 104
20 116
20 118
20 119
20 125
20 131
20 135
20 140
20 142
20 151
20 163
20 186
20 197
21 44
21 65
21 72
21 79
21 96
21 107
21 116
21 159
21 171
21 185
21 195
22 36
22 38
22 39
22 40
22 46
22 52
22 66
22 70
22 71
22 87
22 105
22 113
22 126
22 136
22 138
22 143
22 148
22 183
22 192
22 196
23 25
23 26
23 41
23 62
23 72
23 89
23 98
23 105
23 111
23 121
23 124
23 132
23 140
23 146
23 147
23 153
23 154
23 156
23 158
23 161
23 172
23 184
23 189
23 195
23 198
24 28
24 36
24 56
24 61
24 72
24 89
24 104
24 106
24 112
24 131
24 132
24 142
24 151
24 161
24 173
24 176
24 184
24 186
24 190
24 193
24 198
25 29
25 39
25 52
25 58
25 60
25 76
25 92
25 96
25 107
25 118
25 130
25 138
25 153
25 161
25 162
25 165
25 173
25 176
25 180
25 186
25 193
25 199
25 801
25 1436
26 32
26 34
26 41
26 48
26 51
26 64
26 81
26 84
26 93
26 95
26 101
26 120
26 124
26 132
26 135
26 154
26 157
26 159
26 163
26 173
26 175
26 182
26 184
26 187
26 1570
27 28
27 32
27 50
27 52
27 55
27 60
27 97
27 102
27 113
27 120
27 129
27 137
27 141
27 151
27 180
27 195
28 50
28 60
28 66
28 82
28 91
28 93
28 102
28 108
28 116
28 124
28 144
28 157
28 163
28 179
28 182
29 34
29 45
29 47
29 48
29 66
29 74
29 75
29 76
29 105
29 106
29 119
29 123
29 128
29 133
29 158
29 163
29 165
29 170
30 37
30 44
30 50
30 69
30 98
30 102
30 103
30 110
30 125
30 134
30 139
30 160
30 163
30 167
30 198
31 40
31 65
31 77
31 92
31 103
31 117
31 125
31 129
31 132
31 144
31 154
31 159
31 166
31 169
31 186
32 49
32 50
32 52
32 65
32 68
32 70
32 89
32 105
32 109
32 111
32 130
32 133
32 138
32 143
32 145
32 146
32 149
32 165
32 185
33 60
33 81
33 85
33 92
33 95
33 108
33 109
33 122
33 138
33 141
33 145
33 160
33 187
33 194
34 37
34 41
34 49
34 54
34 76
34 77
34 80
34 99
34 101
34 114
34 123
34 128
34 146
34 162
34 178
34 186
34 195
35 36
35 46
35 48
35 59
35 63
35 64
35 66
35 73
35 76
35 86
35 91
35 100
35 106
35 110
35 112
35 116
35 122
35 134
35 139
35 175
35 191
36 37
36 39
36 51
36 52
36 55
36 58
36 62
36 78
36 80
36 81
36 82
36 100
36 139
36 144
36 160
36 169
36 179
36 190
37 43
37 47
37 60
37 81
37 84
37 86
37 91
37 101
37 113
37 138
37 146
37 151
37 165
37 183
37 196
38 41
38 55
38 59
38 61
38 62
38 70
38 73
38 99
38 105
38 114
38 118
38 119
38 132
38 146
38 151
38 158
38 161
38 163
38 167
38 199
39 40
39 48
39 49
39 57
39 66
39 69
39 74
39 90
39 98
39 109
39 119
39 139
39 155
39 160
39 179
39 184
39 185
39 187
39 198
40 57
40 82
40 110
40 122
40 130
40 144
40 166
40 168
40 171
40 189
41 45
41 61
41 71
41 73
41 79
41 87
41 111
41 118
41 120
41 140
41 143
41 145
41 156
41 159
41 165
41 173
41 187
41 191
41 198
42 53
42 58
42 59
42 82
42 83
42 101
42 102
42 103
42 114
42 118
42 129
42 132
42 140
42 153
42 158
42 163
43 48
43 63
43 68
43 82
43 88
43 106
43 120
43 125
43 130
43 140
43 141
43 142
43 147
43 168
43 177
43 178
43 188
43 189
43 190
43 194
43 197
44 45
44 52
44 64
44 65
44 81
44 98
44 104
44 108
44 122
44 123
44 156
44 161
44 176
44 178
44 184
44 788
45 50
45 58
45 59
45 62
45 69
45 75
45 85
45 92
45 101
45 109
45 116
45 127
45 133
45 142
45 146
45 156
45 176
45 184
46 48
46 49
46 62
46 74
46 76
46 81
46 84
46 85
46 86
46 87
46 95
46 96
46 105
46 153
46 160
46 168
46 178
46 180
46 193
47 60
47 64
47 74
47 78
47 91
47 101
47 123
47 124
47 126
47 129
47 131
47 136
47 138
47 140
47 142
47 144
47 152
47 158
47 172
47 178
47 179
47 199
48 83
48 85
48 92
48 93
48 97
48 114
48 136
48 166
48 185
48 187
49 54
49 95
49 99
49 117
49 125
49 132
49 143
49 149
49 191
49 197
50 87
50 106
50 113
50 132
50 146
50 169
50 179
50 183
50 185
50 974
50 1032
51 64
51 69
51 72
51 74
51 81
51 85
51 98
51 106
51 131
51 142
51 158
51 172
51 180
51 183
51 187
51 188
51 195
52 55
52 58
52 81
52 95
52 103
52 117
52 118
52 139
52 158
52 167
52 171
53 68
53 80
53 108
53 126
53 132
53 134
53 138
53 140
53 150
53 167
53 183
53 185
53 198
54 58
54 71
54 73
54 74
54 79
54 82
54 85
54 90
54 96
54 98
54 113
54 116
54 141
54 151
54 155
54 164
54 172
55 67
55 75
55 78
55 79
55 81
55 99
55 112
55 118
55 122
55 139
55 146
55 153
55 154
55 157
55 158
55 165
55 168
55 177
55 179
55 181
55 185
55 198
56 60
56 67
56 71
56 104
56 112
56 117
56 122
56 123
56 132
56 147
56 166
56 175
56 176
56 187
56 192
56 193
56 1957
57 58
57 64
57 67
57 69
57 74
57 75
57 83
57 91
57 94
57 98
57 101
57 120
57 157
57 175
57 180
57 189
57 194
58 67
58 75
58 83
58 90
58 108
58 120
58 125
58 135
58 148
58 163
58 166
58 199
59 81
59 89
59 96
59 117
59 123
59 124
59 128
59 138
59 144
59 147
59 158
59 167
59 187
59 199
59 1811
60 106
60 108
60 114
60 123
60 124
60 144
60 156
60 170
60 178
60 185
61 79
61 99
61 117
61 118
61 121
61 141
61 146
61 147
61 150
61 164
61 185
61 195
62 70
62 84
62 88
62 107
62 111
62 118
62 136
62 161
62 163
62 169
62 174
62 178
62 185
62 188
62 198
63 67
63 69
63 76
63 94
63 100
63 109
63 118
63 124
63 138
63 141
63 146
63 154
63 156
63 180
63 183
63 187
64 78
64 79
64 85
64 98
64 121
64 133
64 157
64 158
64 170
64 171
64 179
64 181
64 187
64 192
64 195
65 78
65 79
65 84
65 89
65 93
65 94
65 99
65 102
65 114
65 116
65 118
65 122
65 128
65 148
65 157
65 182
65 198
66 67
66 69
66 90
66 96
66 113
66 114
66 118
66 120
66 144
66 161
66 164
66 188
66 194
66 198
66 199
67 70
67 91
67 107
67 132
67 133
67 137
67 143
67 156
67 170
67 174
67 176
67 180
67 191
67 194
68 71
68 73
68 81
68 93
68 94
68 101
68 123
68 165
68 191
69 83
69 88
69 90
69 97
69 99
69 106
69 112
69 114
69 119
69 122
69 156
69 183
69 184
69 187
69 196
69 198
70 73
70 77
70 84
70 96
70 100
70 123
70 135
70 146
70 157
70 172
70 179
70 190
70 197
71 81
71 83
71 96
71 99
71 122
71 123
71 130
71 148
71 153
71 158
71 164
71 193
71 194
72 77
72 78
72 79
72 80
72 88
72 91
72 92
72 95
72 106
72 110
72 111
72 137
72 140
72 141
72 160
72 168
72 171
72 182
73 87
73 97
73 106
73 119
73 136
73 139
73 141
73 143
73 163
73 169
73 171
73 177
73 180
73 241
74 79
74 81
74 122
74 124
74 128
74 154
74 165
74 168
74 181
74 189
74 191
74 192
75 79
75 84
75 92
75 101
75 103
75 109
75 111
75 112
75 127
75 133
75 163
75 172
75 184
75 189
75 199
76 85
76 98
76 139
76 140
76 155
76 160
76 163
76 183
76 190
76 196
76 197
77 81
77 84
77 96
77 113
77 123
77 131
77 135
77 169
77 170
77 178
77 186
77 188
77 189
77 193
78 94
78 96
78 105
78 117
78 132
78 135
78 141
78 170
78 173
78 176
78 180
78 198
79 94
79 107
79 120
79 125
79 128
79 130
79 133
79 149
79 168
79 171
79 183
80 97
80 103
80 104
80 105
80 109
80 114
80 117
80 120
80 126
80 134
80 155
80 165
80 168
80 180
80 197
81 90
81 111
81 112
81 176
81 180
81 183
81 191
81 193
81 199
82 94
82 95
82 139
82 141
82 147
82 148
82 164
82 169
82 183
82 189
83 95
83 121
83 125
83 128
83 139
83 145
83 155
83 166
83 169
83 175
83 193
84 92
84 93
84 96
84 123
84 129
84 156
84 160
84 171
84 179
84 190
85 92
85 108
85 123
85 127
85 142
85 161
85 165
85 189
85 191
85 196
86 97
86 113
86 116
86 123
86 132
86 133
86 143
86 156
86 176
86 190
86 192
87 89
87 95
87 99
87 103
87 106
87 109
87 113
87 115
87 136
87 147
87 149
87 150
87 151
87 153
87 162
87 166
87 171
87 174
87 199
88 107
88 112
88 117
88 129
88 133
88 137
88 147
88 170
88 173
88 193
89 103
89 115
89 122
89 131
89 158
89 167
89 168
89 173
89 175
89 179
89 189
90 99
90 112
90 114
90 120
90 121
90 123
90 151
90 168
90 171
90 188
90 192
90 195
91 92
91 109
91 134
91 138
91 153
91 155
91 165
91 181
91 185
91 190
91 197
91 198
91 1955
92 107
92 126
92 128
92 130
92 133
92 142
92 170
92 176
92 184
92 195
92 1570
93 97
93 124
93 132
93 134
93 138
93 139
93 141
93 142
93 143
93 150
93 158
93 166
93 169
93 181
93 184
93 186
93 187
93 196
94 100
94 108
94 113
94 116
94 118
94 134
94 136
94 140
94 144
94 193
94 194
95 106
95 124
95 134
95 140
95 150
95 160
95 169
95 175
95 181
95 182
95 190
95 194
96 112
96 114
96 134
96 164
96 178
97 99
97 102
97 105
97 130
97 143
97 154
97 160
97 177
97 187
97 188
97 195
98 107
98 113
98 118
98 121
98 122
98 132
98 134
98 135
98 141
98 147
98 167
98 175
98 180
99 101
99 109
99 111
99 125
99 130
99 142
99 165
99 183
99 184
99 185
99 188
99 193
99 198
100 109
100 127
100 141
100 154
100 166
100 178
100 179
100 190
100 796
101 106
101 123
101 138
101 140
101 146
101 158
101 175
101 178
101 180
101 184
101 879
101 1231
102 110
102 114
102 115
102 124
102 134
102 158
102 161
102 171
102 172
102 178
102 184
102 194
102 195
103 105
103 112
103 118
103 131
103 133
103 144
103 148
103 158
103 162
103 188
104 107
104 124
104 137
104 141
104 142
104 145
104 161
104 177
105 123
105 135
105 147
105 161
105 167
105 177
105 182
105 192
106 110
106 118
106 127
106 129
106 136
106 137
106 142
106 143
106 154
106 155
106 162
106 166
106 170
106 183
106 193
107 112
107 126
107 131
107 132
107 143
107 150
107 153
107 160
107 167
107 175
108 114
108 117
108 124
108 125
108 128
108 136
108 167
108 169
108 180
108 185
108 196
108 198
108 199
109 126
109 141
109 144
109 145
109 164
109 179
109 189
109 190
109 198
109 506
110 149
110 159
110 184
110 198
111 140
111 146
111 153
111 155
111 162
111 184
111 185
111 186
111 189
111 1235
112 119
112 129
112 136
112 142
112 143
112 153
112 155
112 166
112 167
112 182
112 183
113 120
113 157
113 175
113 176
113 186
113 189
113 195
114 116
114 129
114 135
114 146
114 148
114 149
114 152
114 183
114 199
115 126
115 131
115 137
115 144
115 145
115 147
115 150
115 157
115 168
115 185
115 198
116 121
116 129
116 134
116 146
116 155
116 167
116 178
116 179
117 132
117 133
117 139
117 148
117 157
117 159
117 161
117 164
117 173
117 183
117 184
117 191
117 197
118 124
118 132
118 144
118 150
118 175
118 182
118 186
118 188
119 130
119 134
119 148
119 162
119 1006
120 127
120 137
120 143
120 149
120 189
120 191
120 192
120 199
121 129
121 131
121 137
121 145
121 152
121 153
121 170
121 171
121 197
121 198
122 132
122 135
122 180
122 190
123 140
123 147
123 150
123 152
123 154
123 168
123 171
123 198
124 132
124 139
124 142
124 159
124 179
124 190
124 199
125 138
125 142
125 146
125 151
125 163
125 167
125 177
125 180
126 128
126 138
126 146
126 150
126 164
126 185
126 194
126 198
126 199
126 1169
127 132
127 160
127 191
127 192
127 197
128 129
128 150
128 163
128 166
128 167
128 172
128 186
128 198
129 140
129 144
129 159
129 161
130 133
130 146
130 155
130 169
130 170
130 185
130 190
130 192
131 194
132 134
132 147
132 152
132 153
132 168
132 171
132 181
132 188
132 198
133 136
133 139
133 141
133 155
133 158
133 173
133 187
133 194
133 199
133 729
134 139
134 158
134 171
134 174
134 183
134 184
134 186
134 190
134 194
135 145
135 146
135 155
135 157
135 168
135 173
135 177
135 190
135 1876
136 138
136 139
136 150
136 167
136 181
137 166
137 179
137 192
138 143
138 151
138 155
138 167
138 170
138 175
138 179
138 185
138 199
139 143
139 148
139 155
139 164
139 166
140 148
140 170
140 173
140 186
140 187
140 190
141 149
141 164
141 165
141 166
141 169
141 172
141 178
141 179
141 192
142 156
142 171
142 172
142 180
142 195
142 1485
143 144
143 145
143 163
143 174
143 178
144 169
144 178
144 192
144 1182
145 163
145 174
145 175
145 176
146 150
146 154
146 174
146 181
146 198
146 199
147 164
147 181
147 186
147 191
148 161
148 165
148 173
148 186
148 189
148 193
148 198
149 176
149 193
149 196
150 156
150 167
150 168
150 175
150 184
150 187
150 199
151 155
151 168
151 184
151 185
151 198
152 156
152 158
152 160
152 172
152 173
152 188
153 166
153 169
153 174
153 181
153 196
154 157
155 157
155 160
155 163
155 168
155 183
155 192
155 199
156 157
156 160
157 168
157 172
157 187
157 191
158 176
159 163
159 164
159 168
159 176
159 184
159 192
159 197
160 162
160 170
160 183
160 194
160 196
161 165
161 170
161 182
162 166
162 175
162 176
162 180
162 186
162 191
163 189
164 179
164 190
165 184
166 180
166 187
166 188
166 191
166 197
167 189
168 193
168 195
168 1425
169 173
170 196
171 179
172 173
172 186
172 519
174 1402
175 188
175 190
175 191
175 199
176 180
176 184
176 191
176 198
178 188
178 192
179 181
179 195
180 182
180 192
181 193
181 195
185 186
186 192
186 193
186 198
190 194
191 199
193 199
197 1808
200 217
200 221
200 225
200 256
200 271
200 273
200 286
200 295
200 298
200 319
200 320
200 325
200 328
200 346
200 352
200 370
200 372
200 373
200 382
200 389
200 390
201 224
201 232
201 237
201 243
201 246
201 249
201 263
201 267
201 271
201 285
201 293
201 298
201 300
201 302
201 307
201 313
201 315
201 319
201 327
201 344
201 356
201 359
201 370
201 387
201 388
202 211
202 236
202 240
202 254
202 263
202 284
202 291
202 298
202 300
202 317
202 318
202 347
202 351
202 357
202 360
202 361
202 372
202 375
202 392
202 394
202 396
203 204
203 234
203 251
203 255
203 269
203 280
203 284
203 285
203 311
203 313
203 327
203 379
203 381
204 223
204 238
204 250
204 260
204 263
204 265
204 275
204 298
204 315
204 319
204 337
204 343
204 359
204 361
204 370
204 380
205 209
205 223
205 234
205 240
205 245
205 277
205 295
205 302
205 305
205 316
205 318
205 340
205 364
205 367
205 392
206 213
206 229
206 230
206 233
206 234
206 243
206 256
206 257
206 263
206 269
206 303
206 339
206 359
206 376
206 380
206 385
206 390
207 211
207 222
207 228
207 231
207 241
207 257
207 272
207 276
207 280
207 281
207 285
207 301
207 320
207 323
207 343
207 344
207 345
207 346
207 378
207 387
207 397
208 214
208 216
208 219
208 226
208 242
208 253
208 254
208 273
208 275
208 280
208 308
208 317
208 341
208 347
208 372
208 379
208 385
208 399
209 229
209 268
209 274
209 294
209 308
209 321
209 325
209 336
209 351
209 357
209 359
209 363
209 382
209 392
209 397
210 216
210 220
210 234
210 239
210 241
210 244
210 257
210 263
210 273
210 278
210 291
210 296
210 300
210 331
210 337
210 342
210 354
210 368
210 379
210 381
210 399
210 1372
211 225
211 247
211 253
211 274
211 276
211 302
211 322
211 323
211 331
211 337
211 347
211 371
211 380
211 381
211 384
211 397
212 216
212 224
212 228
212 248
212 251
212 259
212 284
212 301
212 302
212 303
212 313
212 335
212 361
212 371
212 375
212 377
212 384
212 387
212 388
212 392
213 219
213 221
213 224
213 229
213 233
213 235
213 241
213 251
213 265
213 266
213 279
213 282
213 298
213 309
213 342
213 345
213 354
213 356
213 366
213 367
213 369
213 386
213 388
213 389
214 220
214 248
214 254
214 256
214 257
214 260
214 285
214 295
214 321
214 340
214 356
214 359
214 367
214 369
214 385
214 392
215 229
215 234
215 239
215 242
215 252
215 258
215 261
215 284
215 290
215 307
215 311
215 332
215 339
215 342
215 344
215 362
215 368
215 375
215 388
215 391
215 397
216 218
216 228
216 230
216 231
216 234
216 239
216 250
216 252
216 266
216 270
216 282
216 286
216 289
216 293
216 310
216 311
216 325
216 336
216 339
216 343
216 346
216 355
216 362
216 368
216 372
216 379
216 390
216 1859
217 221
217 237
217 239
217 278
217 287
217 288
217 297
217 303
217 316
217 317
217 319
217 336
217 355
217 358
217 366
217 373
217 379
217 382
217 390
218 219
218 228
218 232
218 237
218 255
218 271
218 276
218 280
218 281
218 286
218 288
218 297
218 302
218 306
218 321
218 322
218 331
218 336
218 341
218 349
218 358
218 360
218 362
218 374
218 383
218 389
219 223
219 232
219 233
219 243
219 254
219 255
219 256
219 259
219 261
219 289
219 335
219 344
219 1143
220 233
220 237
220 248
220 250
220 259
220 268
220 271
220 275
220 279
220 289
220 296
220 302
220 310
220 317
220 360
220 368
220 371
220 383
220 386
220 396
220 397
220 1754
221 227
221 229
221 264
221 269
221 291
221 293
221 304
221 307
221 313
221 314
221 315
221 327
221 331
221 339
221 345
221 365
221 368
221 375
221 380
221 382
221 385
221 394
221 397
221 399
222 229
222 236
222 238
222 264
222 275
222 276
222 277
222 286
222 293
222 311
222 327
222 332
222 346
222 348
222 351
222 354
222 360
222 365
222 369
222 370
222 394
222 395
223 242
223 256
223 263
223 265
223 274
223 277
223 284
223 291
223 310
223 327
223 330
223 345
223 355
223 357
223 363
223 374
223 381
223 386
224 230
224 237
224 242
224 259
224 261
224 264
224 267
224 274
224 285
224 288
224 295
224 304
224 305
224 312
224 337
224 341
224 347
224 351
224 368
224 369
224 371
224 386
224 390
224 391
225 236
225 239
225 243
225 266
225 267
225 268
225 271
225 276
225 286
225 294
225 306
225 327
225 330
225 354
225 368
225 380
225 389
225 395
225 397
226 231
226 233
226 238
226 247
226 252
226 267
226 273
226 304
226 305
226 331
226 351
226 357
226 365
226 372
226 374
226 379
226 380
226 390
226 397
227 232
227 248
227 252
227 260
227 277
227 301
227 307
227 315
227 322
227 330
227 335
227 353
227 360
227 363
227 372
227 376
227 379
227 394
227 1667
228 239
228 269
228 272
228 293
228 295
228 297
228 322
228 324
228 360
228 387
228 389
228 396
229 230
229 246
229 247
229 281
229 287
229 296
229 298
229 327
229 336
229 339
229 356
229 357
229 362
229 366
230 237
230 254
230 280
230 300
230 308
230 323
230 326
230 332
230 341
230 360
230 361
230 364
230 368
230 378
230 382
230 389
230 395
231 232
231 259
231 261
231 270
231 285
231 286
231 295
231 304
231 306
231 312
231 320
231 340
231 344
231 345
231 367
231 368
231 377
231 389
231 393
231 394
232 242
232 251
232 260
232 263
232 269
232 279
232 284
232 297
232 299
232 308
232 310
232 314
232 317
232 324
232 332
232 337
232 339
232 354
232 368
232 377
232 382
232 384
232 397
233 234
233 250
233 256
233 277
233 285
233 288
233 295
233 297
233 299
233 329
233 333
233 341
233 347
233 353
233 360
233 363
233 376
233 381
234 259
234 280
234 286
234 287
234 298
234 300
234 324
234 343
234 348
234 358
234 368
234 376
234 391
235 247
235 266
235 275
235 283
235 302
235 304
235 306
235 325
235 343
235 351
235 359
235 372
235 374
235 381
235 387
235 398
236 238
236 248
236 253
236 257
236 260
236 261
236 269
236 273
236 308
236 326
236 340
236 343
236 370
236 922
237 243
237 248
237 269
237 275
237 278
237 280
237 297
237 313
237 315
237 339
237 377
237 383
237 385
237 394
238 241
238 242
238 277
238 288
238 316
238 320
238 323
238 328
238 330
238 339
238 352
238 353
238 355
238 356
238 367
238 396
238 397
239 253
239 264
239 274
239 279
239 285
239 291
239 295
239 299
239 314
239 317
239 318
239 326
239 328
239 329
239 334
239 346
239 350
239 354
239 364
239 378
239 394
239 399
240 252
240 276
240 287
240 289
240 305
240 309
240 323
240 331
240 347
240 383
240 388
240 399
241 252
241 256
241 267
241 269
241 271
241 292
241 298
241 300
241 313
241 325
241 329
241 341
241 343
241 360
241 368
241 372
241 381
241 396
241 398
242 243
242 250
242 270
242 272
242 281
242 284
242 299
242 325
242 356
242 358
242 365
242 369
242 379
242 382
242 389
242 393
243 252
243 260
243 263
243 267
243 319
243 328
243 352
243 362
243 379
243 380
243 387
243 393
243 398
244 250
244 265
244 266
244 274
244 279
244 283
244 291
244 298
244 300
244 301
244 312
244 323
244 328
244 340
244 352
244 379
244 1961
245 276
245 281
245 283
245 287
245 291
245 295
245 296
245 298
245 307
245 313
245 326
245 330
245 339
245 345
245 349
245 369
245 371
245 382
245 385
245 727
246 254
246 255
246 261
246 263
246 280
246 282
246 283
246 290
246 293
246 317
246 336
246 337
246 338
246 339
246 348
246 353
246 356
246 363
246 368
246 375
246 378
247 255
247 266
247 269
247 280
247 304
247 306
247 317
247 334
247 338
247 348
247 366
247 382
247 387
247 394
247 397
247 770
248 254
248 259
248 270
248 275
248 283
248 303
248 307
248 311
248 320
248 327
248 362
248 367
248 375
248 383
248 385
248 386
248 397
249 256
249 268
249 282
249 289
249 300
249 316
249 329
249 334
249 340
249 364
249 383
249 387
250 256
250 276
250 312
250 318
250 324
250 339
250 343
250 346
250 350
250 353
250 358
250 367
250 370
250 376
250 377
250 380
250 386
250 391
250 397
251 259
251 271
251 277
251 296
251 297
251 299
251 328
251 331
251 336
251 337
251 340
251 349
251 354
251 366
251 368
251 373
251 374
251 376
251 378
251 393
251 1426
252 271
252 272
252 275
252 280
252 282
252 298
252 318
252 329
252 333
252 346
252 362
252 363
252 368
252 377
252 378
253 255
253 262
253 267
253 281
253 284
253 286
253 291
253 292
253 299
253 300
253 301
253 310
253 313
253 358
253 364
253 370
253 373
254 259
254 315
254 321
254 325
254 332
254 335
254 342
254 348
254 358
254 359
254 380
254 386
254 394
255 261
255 267
255 273
255 292
255 299
255 301
255 312
255 316
255 318
255 335
255 343
255 348
255 362
255 392
255 394
255 395
256 262
256 282
256 283
256 300
256 307
256 309
256 314
256 329
256 338
256 343
256 366
256 367
256 368
256 381
256 387
257 259
257 274
257 276
257 279
257 296
257 298
257 305
257 308
257 310
257 329
257 333
257 350
257 352
257 363
257 369
257 385
257 386
258 268
258 288
258 292
258 315
258 327
258 344
258 357
258 363
258 375
258 392
259 264
259 273
259 278
259 283
259 290
259 297
259 303
259 305
259 308
259 318
259 350
259 360
259 362
259 398
260 267
260 270
260 278
260 279
260 285
260 293
260 299
260 337
260 340
260 368
260 373
260 379
260 398
261 264
261 318
261 322
261 326
261 345
261 350
261 351
261 360
261 376
261 384
262 276
262 279
262 280
262 300
262 339
262 343
262 345
262 347
262 350
262 351
262 367
262 376
262 383
262 384
262 396
262 397
262 877
263 290
263 301
263 303
263 343
263 354
263 361
263 363
263 370
263 377
263 381
263 391
264 277
264 278
264 337
264 342
264 388
264 391
265 266
265 284
265 286
265 287
265 295
265 305
265 316
265 355
265 368
265 370
265 373
265 392
266 315
266 330
266 331
266 343
266 344
266 352
266 365
266 369
266 376
266 378
266 391
267 275
267 291
267 295
267 301
267 305
267 308
267 323
267 347
267 351
267 353
267 359
267 376
267 388
267 396
268 290
268 291
268 292
268 296
268 297
268 302
268 305
268 311
268 313
268 314
268 324
268 372
268 381
268 399
269 271
269 291
269 302
269 317
269 327
269 351
269 355
269 377
269 380
269 388
269 391
269 394
269 1582
270 281
270 294
270 300
270 303
270 305
270 308
270 325
270 328
270 347
270 353
270 361
270 378
271 274
271 278
271 284
271 303
271 323
271 350
271 352
271 362
271 381
271 389
272 286
272 296
272 303
272 317
272 320
272 325
272 329
272 330
272 332
272 354
272 365
272 368
272 369
272 380
272 388
273 301
273 306
273 328
273 340
273 364
273 368
273 375
273 385
273 393
273 433
274 277
274 310
274 324
274 325
274 331
274 365
274 391
274 392
275 277
275 283
275 317
275 326
275 349
275 364
275 368
275 371
275 372
275 379
275 390
275 396
276 283
276 286
276 300
276 301
276 311
276 325
276 333
276 334
276 336
276 350
276 355
276 364
276 365
276 380
276 393
277 281
277 285
277 292
277 302
277 332
277 334
277 339
277 344
277 346
277 348
277 358
277 369
277 381
277 393
278 288
278 289
278 299
278 333
278 334
278 336
278 351
278 353
278 377
279 301
279 308
279 328
279 333
279 336
279 350
279 381
280 299
280 304
280 316
280 319
280 328
280 341
280 344
280 345
280 360
280 361
280 371
280 386
280 638
281 301
281 314
281 318
281 319
281 320
281 324
281 329
281 340
281 349
281 363
281 364
281 374
281 376
281 390
281 395
282 288
282 297
282 300
282 301
282 315
282 326
282 330
282 358
282 360
282 364
282 366
282 392
282 395
283 296
283 312
283 341
283 352
283 359
283 364
283 381
283 382
284 287
284 288
284 302
284 303
284 338
284 344
284 360
284 365
284 370
284 374
284 379
284 387
284 393
284 973
284 1868
285 287
285 312
285 313
285 317
285 319
285 328
285 336
285 347
285 361
285 379
285 386
285 391
285 790
286 306
286 318
286 325
286 359
286 366
286 368
286 386
286 391
286 392
287 302
287 309
287 315
287 318
287 325
287 330
287 339
287 385
288 315
288 321
288 327
288 335
288 341
288 343
288 347
288 350
288 352
288 353
288 360
288 370
288 380
288 390
288 393
288 396
289 306
289 315
289 340
289 355
289 366
289 372
289 376
289 379
289 385
290 301
290 315
290 325
290 328
290 337
290 344
290 360
290 378
290 391
290 395
290 398
290 399
291 301
291 305
291 308
291 309
291 311
291 317
291 322
291 339
291 358
291 359
291 361
291 363
291 389
291 393
292 306
292 323
292 338
292 340
292 345
292 362
292 365
292 392
293 319
293 341
293 349
293 358
293 363
293 370
293 371
293 372
293 387
293 394
293 397
293 399
294 306
294 326
294 340
294 343
294 346
294 395
295 296
295 301
295 302
295 305
295 307
295 317
295 318
295 341
295 344
295 349
295 354
295 358
295 373
295 385
295 389
296 314
296 320
296 338
296 350
296 352
296 355
296 356
296 357
296 360
296 378
296 399
296 503
297 298
297 302
297 326
297 371
297 377
297 378
297 387
297 391
297 1054
298 301
298 303
298 340
298 344
298 348
298 363
298 364
298 370
298 381
298 385
298 397
299 303
299 316
299 336
299 340
299 342
299 350
299 378
299 379
300 315
300 319
300 331
300 339
300 340
300 346
300 362
300 379
300 383
301 313
301 329
301 333
301 335
301 364
301 371
301 383
301 391
302 333
302 371
302 389
303 310
303 311
303 323
303 328
303 335
303 337
303 352
303 361
303 388
303 392
304 306
304 308
304 329
304 334
304 341
304 345
304 351
304 361
304 374
304 375
304 380
305 316
305 322
305 331
305 337
305 347
306 318
306 327
306 335
306 341
306 363
306 366
306 375
306 377
306 380
306 387
306 389
306 391
307 310
307 312
307 314
307 323
307 324
307 333
307 342
307 381
307 388
308 309
308 310
308 330
308 333
308 380
308 383
308 393
309 329
309 333
309 344
309 347
309 356
309 378
309 379
309 387
309 395
309 397
310 314
310 317
310 320
310 323
310 347
310 357
310 362
310 363
310 372
311 312
311 316
311 317
311 321
311 340
311 352
311 370
311 372
311 385
311 388
311 393
312 315
312 332
312 349
312 355
312 370
312 372
312 393
313 323
313 340
313 341
313 344
313 353
313 356
313 359
313 371
313 383
314 320
314 323
314 339
314 354
314 364
314 374
314 384
314 1785
315 326
315 354
315 369
315 371
315 384
316 318
316 346
316 349
316 351
316 385
316 387
316 396
317 325
317 328
317 333
317 356
317 361
317 365
317 389
317 395
317 399
318 330
318 334
318 342
318 352
318 361
318 367
318 375
318 393
318 395
319 339
319 340
319 342
319 359
320 325
320 332
320 347
320 352
320 354
320 356
320 372
320 381
320 386
320 389
320 393
320 395
321 326
321 331
321 334
321 336
321 349
321 359
321 367
321 370
321 375
321 380
322 368
322 371
322 372
322 388
322 397
323 324
323 340
323 342
323 358
323 362
323 363
323 377
323 381
323 383
323 387
323 392
323 397
323 398
323 399
324 342
324 347
324 351
324 358
324 384
324 1165
325 328
325 338
325 341
325 360
325 373
325 375
325 398
326 330
326 397
327 348
327 361
327 364
327 382
327 390
327 394
327 396
328 329
328 340
328 350
328 351
328 356
328 375
328 389
328 1307
329 331
329 339
329 379
330 343
330 352
330 365
330 367
330 376
330 381
330 382
330 395
331 336
331 344
331 357
332 337
332 343
332 358
332 361
332 377
332 382
332 383
332 399
333 348
333 370
333 375
333 377
333 384
333 399
334 340
334 345
334 346
334 353
335 340
335 346
335 357
335 368
335 374
335 379
335 1248
336 339
336 351
336 352
336 356
336 362
336 372
336 382
336 396
337 338
337 353
337 359
337 385
338 367
338 372
338 396
338 397
339 342
339 351
339 352
339 361
339 363
339 371
339 372
339 373
339 377
339 379
339 385
339 388
339 394
340 342
340 346
340 362
340 364
340 373
340 374
340 382
341 358
341 366
341 372
341 373
341 381
341 1088
342 359
342 362
342 372
342 374
342 389
342 392
342 395
343 347
343 351
343 359
343 363
343 364
343 371
343 373
343 374
343 379
343 381
344 351
344 380
344 381
344 389
344 398
345 354
345 362
345 369
345 376
345 380
345 382
345 387
345 395
346 352
346 368
346 397
346 398
346 1240
347 351
347 375
347 381
347 390
347 1948
348 363
348 382
348 387
348 388
348 394
349 354
349 371
349 373
349 374
349 378
349 379
349 381
349 389
349 390
350 355
350 357
350 371
350 377
350 381
350 385
350 392
350 394
350 395
350 396
351 361
351 363
351 374
351 375
351 378
351 399
352 372
352 375
352 376
352 381
352 384
352 389
353 367
353 377
353 394
354 357
354 364
354 377
354 382
354 391
354 395
354 397
355 357
355 363
355 373
355 376
355 389
355 390
355 393
356 374
356 378
356 383
356 391
357 362
357 365
357 367
357 375
357 377
357 382
357 390
357 392
358 370
358 391
358 397
359 371
359 377
360 362
360 367
360 368
360 373
360 374
360 382
360 389
360 392
360 455
361 367
361 375
361 383
361 385
361 399
362 368
362 369
362 382
363 369
363 371
363 377
363 383
363 396
363 1543
364 382
364 1454
365 367
365 368
365 370
365 379
365 381
365 387
365 392
365 396
366 387
366 392
367 372
367 385
367 399
368 369
368 374
368 394
368 398
369 372
369 393
369 394
369 396
370 385
370 399
371 388
372 380
372 385
373 384
374 376
374 385
374 395
374 397
374 1748
375 378
375 384
375 396
375 397
375 399
377 379
377 391
378 381
378 389
378 392
378 1814
380 381
380 388
380 395
382 383
382 388
383 392
384 398
385 393
386 391
387 388
387 389
387 393
387 396
389 392
389 396
390 1843
391 394
391 397
391 398
392 393
392 394
392 396
392 991
394 1318
395 398
396 399
399 401
400 415
400 441
400 448
400 453
400 462
400 466
400 474
400 481
400 495
400 513
400 520
400 526
400 531
400 541
400 563
400 592
400 596
400 597
400 599
401 403
401 409
401 421
401 427
401 430
401 436
401 449
401 450
401 456
401 460
401 520
401 524
401 533
401 537
401 544
401 551
401 560
401 564
401 566
401 579
401 580
402 411
402 420
402 433
402 436
402 440
402 444
402 466
402 482
402 495
402 508
402 512
402 526
402 528
402 531
402 559
402 582
402 584
402 599
403 420
403 423
403 440
403 451
403 453
403 476
403 487
403 488
403 492
403 502
403 509
403 516
403 522
403 525
403 527
403 531
403 570
403 584
403 591
403 592
403 597
404 448
404 451
404 467
404 493
404 511
404 513
404 517
404 528
404 530
404 543
404 570
404 579
404 584
404 588
404 595
405 419
405 429
405 434
405 439
405 453
405 454
405 457
405 463
405 496
405 503
405 506
405 507
405 511
405 516
405 524
405 528
405 557
405 558
405 571
405 585
406 416
406 417
406 420
406 425
406 451
406 453
406 457
406 463
406 476
406 501
406 529
406 557
406 562
406 588
407 410
407 426
407 427
407 432
407 433
407 436
407 439
407 458
407 479
407 491
407 494
407 511
407 530
407 533
407 535
407 560
407 570
407 571
407 593
407 599
408 432
408 451
408 456
408 459
408 476
408 491
408 499
408 510
408 514
408 520
408 530
408 535
408 547
408 555
408 557
408 563
408 567
408 568
408 578
408 585
408 590
408 591
408 594
408 596
408 598
409 427
409 436
409 447
409 449
409 458
409 464
409 468
409 480
409 482
409 486
409 493
409 494
409 496
409 510
409 525
409 529
409 530
409 534
409 547
409 550
409 554
409 558
409 561
409 570
409 579
409 582
409 596
410 411
410 422
410 438
410 446
410 460
410 464
410 470
410 488
410 498
410 499
410 505
410 513
410 515
410 536
410 558
410 574
410 764
411 416
411 423
411 441
411 456
411 466
411 469
411 480
411 483
411 486
411 493
411 494
411 503
411 510
411 516
411 517
411 520
411 525
411 528
411 529
411 531
411 542
411 547
411 566
411 573
411 576
411 578
412 429
412 440
412 458
412 459
412 486
412 495
412 496
412 497
412 519
412 532
412 537
412 538
412 545
412 546
412 547
412 550
412 557
412 558
412 564
412 590
412 594
412 598
412 599
413 430
413 441
413 454
413 472
413 486
413 497
413 500
413 524
413 529
413 533
413 549
413 556
413 564
413 581
413 597
413 1739
414 416
414 423
414 449
414 458
414 468
414 487
414 489
414 496
414 498
414 501
414 506
414 525
414 536
414 548
414 560
414 562
414 564
414 566
414 573
414 576
414 577
414 590
414 598
414 599
415 416
415 421
415 440
415 443
415 457
415 464
415 466
415 489
415 491
415 498
415 502
415 511
415 515
415 521
415 530
415 541
415 544
415 569
415 585
415 594
416 426
416 427
416 432
416 437
416 441
416 443
416 460
416 468
416 473
416 480
416 483
416 493
416 499
416 502
416 516
416 521
416 527
416 556
416 595
417 426
417 432
417 433
417 435
417 436
417 440
417 455
417 460
417 470
417 480
417 481
417 502
417 507
417 525
417 532
417 552
417 558
417 559
417 560
417 571
417 572
418 440
418 474
418 485
418 495
418 499
418 510
418 522
418 561
418 564
418 569
418 578
418 581
418 593
419 423
419 439
419 446
419 456
419 468
419 486
419 489
419 491
419 499
419 505
419 507
419 512
419 515
419 529
419 538
419 570
419 597
420 450
420 451
420 461
420 465
420 479
420 485
420 492
420 495
420 502
420 508
420 537
420 558
420 566
420 571
420 576
420 589
420 593
421 438
421 439
421 454
421 462
421 468
421 470
421 473
421 502
421 515
421 527
421 536
421 541
421 567
421 574
421 582
421 595
422 428
422 448
422 450
422 453
422 457
422 491
422 498
422 524
422 538
422 540
422 543
422 556
422 567
422 578
422 579
422 590
423 424
423 427
423 449
423 452
423 453
423 460
423 471
423 481
423 485
423 492
423 508
423 522
423 526
423 536
423 541
423 547
423 552
423 557
423 558
423 561
423 566
423 575
423 578
423 579
423 597
424 427
424 436
424 443
424 444
424 466
424 488
424 500
424 528
424 543
424 559
424 572
424 576
424 578
425 444
425 454
425 467
425 495
425 522
425 539
425 544
425 568
425 569
425 581
425 585
425 586
425 595
425 1495
426 435
426 439
426 464
426 502
426 515
426 523
426 527
426 528
426 531
426 534
426 545
426 580
426 590
426 594
427 432
427 439
427 441
427 447
427 455
427 462
427 463
427 479
427 497
427 498
427 517
427 518
427 524
427 532
427 535
427 553
427 554
427 566
427 584
427 587
427 592
428 429
428 462
428 473
428 490
428 501
428 523
428 555
428 560
428 564
428 565
428 584
428 599
428 1915
428 1928
429 455
429 465
429 469
429 471
429 472
429 484
429 491
429 496
429 500
429 504
429 534
429 580
430 440
430 445
430 456
430 457
430 471
430 473
430 475
430 479
430 483
430 492
430 504
430 526
430 560
430 564
430 569
430 589
430 594
431 441
431 442
431 454
431 461
431 467
431 475
431 483
431 484
431 497
431 513
431 526
431 541
431 556
431 557
431 570
431 574
431 591
431 601
432 442
432 470
432 478
432 480
432 481
432 496
432 500
432 507
432 516
432 517
432 532
432 533
432 534
432 556
432 568
432 582
432 589
432 591
432 599
433 434
433 436
433 456
433 458
433 460
433 479
433 491
433 495
433 505
433 525
433 528
433 549
433 554
433 580
433 599
434 461
434 467
434 472
434 485
434 510
434 519
434 522
434 527
434 534
434 556
434 560
434 563
434 566
434 597
434 715
435 439
435 445
435 451
435 474
435 475
435 481
435 482
435 483
435 488
435 494
435 500
435 502
435 512
435 513
435 521
435 529
435 564
435 575
435 581
436 439
436 441
436 445
436 462
436 466
436 470
436 476
436 482
436 490
436 492
436 498
436 499
436 504
436 509
436 510
436 535
436 548
436 553
436 567
436 568
436 570
436 578
436 588
437 447
437 454
437 458
437 461
437 462
437 468
437 472
437 474
437 475
437 480
437 487
437 491
437 520
437 531
437 537
437 542
437 565
437 567
437 572
437 574
437 575
437 588
437 592
438 439
438 450
438 462
438 467
438 481
438 482
438 489
438 492
438 513
438 520
438 533
438 542
438 543
438 548
438 549
438 552
438 553
438 559
438 562
438 572
438 587
438 592
439 448
439 449
439 453
439 476
439 494
439 495
439 496
439 501
439 507
439 516
439 530
439 532
439 533
439 535
439 546
439 556
439 563
439 566
439 577
439 591
439 592
440 453
440 459
440 490
440 493
440 494
440 505
440 509
440 533
440 540
440 548
440 557
440 572
440 582
440 599
441 444
441 445
441 453
441 457
441 464
441 466
441 467
441 468
441 473
441 490
441 492
441 494
441 495
441 511
441 513
441 520
441 526
441 536
441 537
441 546
441 554
441 575
441 580
441 597
442 453
442 459
442 462
442 466
442 483
442 484
442 489
442 503
442 538
442 541
442 547
442 580
442 585
443 445
443 453
443 463
443 474
443 476
443 478
443 479
443 487
443 511
443 536
443 539
443 549
443 561
443 577
443 581
443 594
444 459
444 479
444 507
444 513
444 527
444 538
444 542
444 544
444 552
444 555
444 573
444 594
444 599
445 450
445 453
445 458
445 462
445 478
445 481
445 486
445 491
445 493
445 506
445 512
445 532
445 537
445 556
445 562
445 571
445 583
445 592
445 599
446 468
446 490
446 497
446 505
446 517
446 520
446 522
446 528
446 529
446 552
446 559
446 563
447 467
447 473
447 484
447 489
447 497
447 502
447 513
447 519
447 549
447 560
447 570
447 587
448 456
448 482
448 497
448 503
448 504
448 506
448 533
448 540
448 542
448 550
448 571
448 574
448 1710
449 454
449 469
449 481
449 501
449 520
449 533
449 535
449 546
449 547
449 549
450 455
450 456
450 484
450 485
450 486
450 487
450 511
450 521
450 523
450 540
450 552
450 555
450 577
450 579
450 582
450 588
451 459
451 471
451 477
451 495
451 516
451 517
451 523
451 526
451 544
451 553
451 554
451 559
451 561
451 580
451 582
451 587
451 590
451 592
452 454
452 476
452 478
452 482
452 490
452 520
452 523
452 534
452 536
452 539
452 546
452 554
452 564
452 565
452 566
452 584
452 591
453 465
453 480
453 486
453 509
453 511
453 537
453 539
453 546
453 548
453 573
453 577
453 584
453 585
453 599
454 462
454 476
454 494
454 498
454 518
454 527
454 530
454 538
454 544
454 549
454 550
454 565
454 580
454 584
454 586
454 598
455 456
455 464
455 509
455 512
455 521
455 527
455 534
455 536
455 556
455 561
455 564
455 578
455 581
455 588
455 590
455 597
456 458
456 467
456 468
456 470
456 479
456 481
456 482
456 496
456 506
456 510
456 515
456 517
456 522
456 536
456 548
456 557
456 561
456 575
456 576
456 577
456 578
456 587
457 470
457 471
457 476
457 486
457 496
457 500
457 501
457 511
457 521
457 522
457 528
457 542
457 565
457 570
457 572
457 579
457 593
458 462
458 477
458 491
458 494
458 501
458 511
458 520
458 547
458 561
458 590
459 479
459 486
459 492
459 501
459 506
459 514
459 517
459 529
459 536
459 556
459 561
459 565
459 577
459 593
459 597
459 600
460 464
460 471
460 475
460 495
460 522
460 529
460 531
460 536
460 552
460 555
460 557
460 566
461 490
461 491
461 527
461 542
461 558
461 559
461 572
461 595
462 471
462 475
462 497
462 524
462 533
462 535
462 537
462 541
462 553
462 559
462 564
462 569
462 577
462 578
462 584
462 588
462 589
462 593
463 466
463 477
463 488
463 501
463 504
463 555
463 557
463 560
463 565
463 598
463 1783
464 473
464 505
464 507
464 516
464 523
464 526
464 544
464 557
464 562
464 567
464 574
464 577
464 594
464 596
465 466
465 471
465 477
465 482
465 491
465 501
465 514
465 516
465 518
465 525
465 544
465 550
465 554
465 578
465 598
465 599
465 808
466 478
466 481
466 483
466 492
466 499
466 552
466 553
466 568
466 574
466 587
466 590
466 592
467 468
467 477
467 479
467 481
467 500
467 506
467 520
467 528
467 535
467 537
467 549
467 560
467 562
467 567
467 579
467 583
467 1385
468 473
468 492
468 496
468 499
468 503
468 513
468 514
468 533
468 536
468 550
468 559
468 569
468 582
468 592
469 484
469 495
469 535
469 541
469 552
469 558
469 562
469 570
469 580
470 474
470 485
470 491
470 504
470 506
470 508
470 511
470 512
470 519
470 522
470 549
470 560
470 571
470 597
471 495
471 497
471 528
471 534
471 547
471 552
471 569
471 570
471 579
471 581
471 1362
472 499
472 501
472 508
472 509
472 515
472 523
472 536
472 547
472 551
472 556
472 561
472 581
472 590
472 597
473 479
473 519
473 528
473 546
473 555
473 561
473 566
473 570
473 573
473 574
473 576
473 577
473 593
474 499
474 507
474 510
474 523
474 528
474 535
474 539
474 549
474 552
475 491
475 504
475 527
475 528
475 549
475 557
475 568
475 576
475 590
475 1239
476 480
476 508
476 518
476 524
476 526
476 533
476 535
476 556
476 569
476 583
476 585
476 596
477 495
477 499
477 513
477 516
477 522
477 560
477 562
477 575
477 579
477 581
477 592
478 498
478 513
478 520
478 540
478 548
478 550
478 570
478 573
478 583
478 593
478 595
478 961
479 493
479 502
479 504
479 512
479 518
479 530
479 534
479 536
479 557
479 566
479 578
479 595
479 596
480 506
480 522
480 525
480 530
480 541
480 557
480 558
480 564
480 568
480 577
480 578
481 491
481 499
481 527
481 564
481 576
481 578
481 579
481 585
481 593
482 500
482 520
482 527
482 536
482 542
482 549
482 561
482 568
482 574
482 579
482 597
483 505
483 515
483 520
483 521
483 523
483 527
483 530
483 562
483 568
483 570
483 573
483 575
483 580
483 594
483 597
483 1948
484 490
484 518
484 519
484 524
484 534
484 557
484 567
484 573
484 586
485 497
485 515
485 551
485 559
485 563
485 564
485 599
486 494
486 502
486 511
486 512
486 517
486 532
486 534
486 542
486 551
486 592
486 598
487 494
487 509
487 510
487 511
487 514
487 548
487 565
487 566
487 573
488 508
488 511
488 518
488 519
488 544
488 560
488 581
488 595
489 501
489 503
489 506
489 516
489 517
489 519
489 562
489 576
489 579
489 584
489 588
490 492
490 514
490 515
490 524
490 531
490 577
490 598
490 599
491 505
491 512
491 550
491 555
491 559
491 560
491 569
491 572
491 583
491 590
491 592
491 596
492 511
492 518
492 553
492 557
492 560
492 578
492 585
492 599
493 495
493 497
493 500
493 509
493 512
493 516
493 529
493 567
493 574
493 596
493 1407
494 511
494 541
494 551
494 554
494 568
494 572
494 574
494 588
494 595
494 596
495 499
495 501
495 510
495 513
495 516
495 517
495 535
495 543
495 545
495 549
495 551
495 552
495 555
495 557
495 558
495 583
495 586
495 594
496 507
496 514
496 524
496 527
496 536
496 548
496 550
496 552
496 557
496 561
496 579
496 581
496 582
496 596
497 499
497 500
497 530
497 534
497 536
497 541
497 543
497 544
497 555
497 559
497 561
497 565
497 579
497 584
497 594
497 598
498 536
498 539
498 558
498 562
498 574
498 582
498 593
499 504
499 505
499 512
499 524
499 549
499 563
499 573
499 577
499 578
499 592
499 598
500 505
500 543
500 559
500 564
500 576
500 582
500 591
501 502
501 504
501 506
501 507
501 510
501 513
501 519
501 535
501 553
501 557
501 591
501 597
502 520
502 521
502 551
502 557
502 558
502 570
502 571
502 580
502 594
502 595
503 516
503 526
503 530
503 537
503 538
503 565
504 505
504 507
504 520
504 585
504 588
504 596
504 598
505 507
505 519
505 522
505 543
505 556
505 557
505 561
505 565
505 580
505 588
505 592
505 593
506 508
506 522
506 541
506 542
506 546
506 553
506 563
506 564
506 568
506 578
506 582
506 584
506 586
507 509
507 515
507 533
507 551
507 560
507 581
507 584
507 587
507 589
507 599
508 509
508 514
508 522
508 528
508 540
508 553
508 556
508 579
508 581
508 591
509 511
509 516
509 541
509 546
509 559
509 563
509 566
509 571
509 582
509 598
510 516
510 524
510 527
510 535
510 544
510 545
510 584
511 520
511 531
511 541
511 557
511 590
511 595
511 596
511 598
512 535
512 568
512 570
512 584
512 592
513 532
513 533
513 543
513 563
513 574
513 581
514 519
514 529
514 530
514 531
514 536
514 540
514 562
514 566
514 574
514 593
515 523
515 525
515 529
515 535
515 539
515 559
515 570
515 575
515 593
515 596
515 970
516 528
516 547
516 556
516 561
516 566
516 570
516 586
516 591
516 593
516 594
517 543
517 548
517 557
517 565
517 573
517 576
517 577
517 579
517 580
517 586
517 598
518 542
518 546
518 548
518 557
518 563
518 568
518 587
518 1553
519 531
519 532
519 533
519 536
519 544
519 565
519 572
519 579
519 588
519 592
519 598
520 528
520 529
520 538
520 554
520 563
520 569
520 578
520 597
521 526
521 535
521 548
521 560
521 562
521 563
521 565
521 591
522 533
522 542
522 544
522 546
522 558
522 559
522 566
522 568
522 578
522 586
522 590
522 593
523 524
523 579
523 581
523 588
523 597
524 540
524 559
524 574
524 575
524 584
524 593
525 526
525 578
525 582
526 536
526 545
526 569
526 583
526 587
527 539
527 540
527 550
527 553
527 572
527 576
527 580
527 585
527 589
528 571
529 538
529 539
529 549
529 554
529 558
529 566
529 584
530 533
530 538
530 545
530 556
530 560
530 561
530 568
530 583
530 584
530 591
530 599
531 546
531 568
531 583
531 1709
532 544
532 552
532 557
532 563
532 564
532 566
533 540
533 557
533 573
533 575
533 577
533 578
534 547
534 548
534 549
534 561
534 563
534 566
534 567
534 573
534 582
534 1885
535 550
535 579
535 594
535 595
536 550
536 555
536 558
536 562
536 574
536 575
536 577
536 593
537 560
537 582
537 589
537 591
537 594
537 596
538 540
538 548
538 551
538 583
538 590
538 592
538 598
538 1216
539 541
539 567
539 578
539 579
539 580
539 590
539 592
539 597
540 550
540 566
540 569
540 593
541 543
541 554
541 561
541 569
541 573
541 598
542 550
542 551
542 554
542 557
542 563
542 571
542 575
542 577
542 587
543 559
543 568
543 578
544 556
544 561
544 572
544 583
544 599
544 1433
545 566
545 571
545 585
545 586
545 590
545 595
546 569
546 573
546 579
546 591
547 551
547 553
547 555
547 566
547 584
547 599
547 1865
548 552
548 554
548 556
548 558
548 575
549 554
549 568
549 572
549 582
549 585
549 586
549 591
549 595
549 598
550 558
550 561
550 565
550 567
550 580
550 1265
551 553
551 555
551 568
551 573
551 576
552 578
552 599
552 1359
553 557
553 560
553 566
553 571
553 572
553 584
553 587
553 590
553 594
554 558
554 562
555 565
555 566
555 568
555 570
555 571
555 593
556 561
556 565
556 578
556 584
556 594
556 623
557 582
557 583
557 585
558 560
558 561
558 564
558 579
558 594
559 562
559 565
559 585
560 568
560 575
560 589
560 598
560 1776
561 571
561 577
561 598
562 567
562 570
563 574
564 577
564 587
564 588
564 594
564 598
565 570
565 573
565 578
565 582
566 576
566 581
566 1758
567 579
567 587
568 571
568 590
568 597
569 571
569 593
570 581
571 593
571 596
572 585
572 590
573 576
574 578
574 588
574 591
574 598
575 577
575 580
575 589
576 581
576 582
576 586
576 591
576 596
577 586
577 587
577 589
577 598
577 837
578 593
579 589
580 581
580 585
580 586
580 591
580 593
580 594
581 584
581 585
581 591
581 599
583 597
584 591
584 593
585 590
585 594
585 597
586 589
586 592
588 596
590 596
591 592
591 594
592 596
594 596
595 1043
597 598
599 688
599 791
600 613
600 614
600 616
600 617
600 620
600 623
600 625
600 643
600 658
600 685
600 712
600 714
600 716
600 720
600 752
600 765
600 767
600 770
600 775
600 780
600 781
600 795
600 797
601 626
601 633
601 634
601 635
601 638
601 643
601 644
601 651
601 652
601 673
601 685
601 693
601 724
601 729
601 733
601 778
601 779
601 799
602 636
602 639
602 655
602 663
602 681
602 683
602 693
602 695
602 699
602 708
602 738
602 776
602 777
602 787
602 788
603 621
603 634
603 657
603 666
603 677
603 722
603 725
603 746
603 747
603 753
603 779
603 795
603 799
604 616
604 623
604 625
604 628
604 638
604 639
604 645
604 667
604 681
604 684
604 685
604 707
604 714
604 724
604 738
604 739
604 740
604 758
604 765
604 767
604 768
604 772
604 778
604 779
604 787
604 790
604 791
604 793
605 614
605 632
605 649
605 664
605 685
605 689
605 694
605 695
605 701
605 705
605 722
605 729
605 753
605 754
605 755
605 779
605 793
606 612
606 613
606 614
606 621
606 624
606 626
606 627
606 638
606 643
606 658
606 660
606 667
606 693
606 696
606 719
606 725
606 732
606 751
606 760
606 770
606 782
606 783
606 787
606 792
607 613
607 616
607 651
607 653
607 654
607 667
607 671
607 673
607 682
607 704
607 709
607 715
607 717
607 732
607 739
607 744
607 747
607 753
607 761
607 771
608 619
608 641
608 653
608 654
608 658
608 662
608 697
608 700
608 711
608 714
608 715
608 718
608 736
608 738
608 740
608 746
608 751
608 761
608 785
608 788
608 789
608 794
608 796
609 612
609 630
609 634
609 641
609 653
609 680
609 699
609 725
609 730
609 733
609 741
609 744
609 765
609 767
609 779
609 782
609 787
609 795
610 619
610 621
610 627
610 632
610 636
610 648
610 649
610 657
610 661
610 673
610 688
610 689
610 698
610 699
610 703
610 707
610 727
610 746
610 747
610 756
610 762
610 765
610 769
610 776
610 783
610 785
610 793
611 612
611 614
611 617
611 619
611 628
611 635
611 644
611 646
611 647
611 660
611 669
611 706
611 723
611 724
611 739
611 749
611 750
611 755
611 778
612 614
612 619
612 632
612 638
612 639
612 641
612 651
612 663
612 696
612 699
612 701
612 706
612 709
612 728
612 741
612 742
612 744
612 762
612 775
612 780
612 784
612 787
612 796
613 635
613 656
613 677
613 684
613 688
613 706
613 708
613 742
613 745
613 750
613 751
613 787
613 789
613 798
614 631
614 658
614 661
614 671
614 682
614 685
614 692
614 702
614 707
614 714
614 723
614 725
614 749
614 761
614 769
615 626
615 637
615 642
615 649
615 653
615 654
615 668
615 686
615 703
615 710
615 773
615 796
616 637
616 673
616 678
616 679
616 692
616 695
616 698
616 701
616 709
616 727
616 728
616 731
616 732
616 761
616 764
616 773
616 790
616 799
616 1304
617 640
617 646
617 653
617 659
617 663
617 665
617 670
617 679
617 685
617 686
617 688
617 690
617 701
617 703
617 706
617 708
617 714
617 717
617 731
617 756
617 776
617 794
617 796
618 627
618 657
618 664
618 669
618 670
618 671
618 675
618 677
618 679
618 701
618 709
618 715
618 719
618 746
618 758
618 761
618 773
619 629
619 633
619 635
619 637
619 641
619 669
619 680
619 697
619 725
619 735
619 746
619 752
619 768
619 775
619 1069
619 1429
620 625
620 650
620 686
620 687
620 692
620 720
620 727
620 731
620 749
620 768
620 774
620 790
621 627
621 635
621 645
621 647
621 661
621 679
621 681
621 695
621 711
621 716
621 725
621 734
621 738
621 756
621 757
621 768
621 775
621 786
621 791
621 793
622 623
622 644
622 659
622 665
622 674
622 678
622 695
622 700
622 702
622 703
622 708
622 710
622 713
622 727
622 756
622 768
622 776
622 790
622 796
622 797
622 799
623 632
623 651
623 661
623 674
623 677
623 687
623 688
623 709
623 723
623 726
623 739
623 743
623 745
623 751
623 775
623 783
623 784
623 799
624 635
624 653
624 657
624 678
624 687
624 690
624 691
624 700
624 702
624 703
624 704
624 719
624 723
624 747
624 764
624 772
624 788
625 627
625 634
625 641
625 652
625 654
625 665
625 666
625 679
625 680
625 684
625 693
625 694
625 702
625 703
625 709
625 711
625 712
625 717
625 726
625 727
625 742
625 761
625 774
625 784
625 787
625 799
626 634
626 644
626 656
626 687
626 691
626 703
626 704
626 706
626 707
626 721
626 736
626 738
626 751
626 792
626 796
627 630
627 637
627 639
627 665
627 668
627 685
627 695
627 714
627 720
627 788
628 666
628 713
628 722
628 723
628 744
628 749
628 758
628 782
628 794
628 796
629 639
629 645
629 656
629 671
629 681
629 690
629 693
629 700
629 704
629 705
629 706
629 715
629 741
629 743
629 745
629 764
629 769
629 772
629 773
629 780
629 792
629 1340
630 638
630 656
630 692
630 715
630 730
630 734
630 747
630 756
630 762
630 770
630 780
630 784
630 790
631 632
631 638
631 639
631 645
631 677
631 679
631 691
631 693
631 694
631 698
631 721
631 724
631 725
631 743
631 757
631 769
631 776
631 777
631 783
632 644
632 652
632 666
632 682
632 719
632 726
632 733
632 735
632 741
632 744
632 751
632 761
632 774
632 783
632 796
633 639
633 642
633 643
633 646
633 672
633 675
633 697
633 701
633 713
633 721
633 725
633 734
633 737
633 740
633 742
633 751
633 753
633 761
633 766
633 770
633 779
633 787
634 638
634 650
634 657
634 671
634 678
634 679
634 684
634 709
634 724
634 728
634 749
634 752
634 769
634 781
634 792
635 657
635 661
635 675
635 681
635 683
635 684
635 686
635 687
635 692
635 712
635 716
635 731
635 732
635 767
635 781
635 1696
636 642
636 655
636 667
636 694
636 702
636 721
636 722
636 726
636 730
636 735
636 738
636 769
636 775
636 779
636 788
637 651
637 662
637 666
637 667
637 673
637 695
637 721
637 738
637 758
637 789
637 791
638 643
638 648
638 660
638 664
638 683
638 684
638 703
638 711
638 716
638 730
638 738
638 744
638 745
638 764
638 774
638 787
638 791
638 794
639 640
639 645
639 648
639 658
639 661
639 676
639 678
639 691
639 712
639 720
639 769
639 777
639 786
639 788
639 796
640 642
640 649
640 651
640 656
640 673
640 674
640 686
640 700
640 704
640 705
640 737
640 739
640 752
640 761
640 771
640 772
640 778
640 781
640 784
640 787
640 795
641 656
641 657
641 669
641 670
641 675
641 677
641 684
641 697
641 703
641 704
641 768
641 777
642 645
642 653
642 663
642 667
642 678
642 694
642 704
642 710
642 719
642 735
642 743
642 764
642 766
642 773
642 775
642 788
642 791
643 664
643 667
643 672
643 675
643 683
643 708
643 726
643 748
643 779
643 784
643 788
644 645
644 654
644 655
644 672
644 675
644 714
644 751
644 764
644 781
644 798
644 799
644 1236
644 1864
644 1969
645 669
645 680
645 682
645 692
645 695
645 696
645 713
645 718
645 724
645 729
645 770
645 787
645 795
645 1202
646 665
646 673
646 688
646 696
646 703
646 710
646 723
646 734
646 737
646 760
646 765
646 766
646 768
646 781
646 785
647 649
647 661
647 664
647 679
647 684
647 689
647 696
647 714
647 736
647 742
647 771
647 776
647 783
648 660
648 665
648 676
648 677
648 681
648 683
648 699
648 723
648 737
648 739
648 741
648 768
648 773
648 778
649 653
649 676
649 682
649 701
649 706
649 709
649 712
649 721
649 732
649 747
649 754
649 772
649 774
649 781
650 664
650 670
650 680
650 736
650 758
650 775
650 779
650 780
650 784
651 662
651 664
651 674
651 677
651 678
651 684
651 689
651 695
651 727
651 729
651 743
651 744
651 748
651 759
651 766
651 798
652 662
652 676
652 677
652 685
652 697
652 712
652 730
652 733
652 734
652 735
652 750
652 752
652 753
652 782
652 794
653 671
653 700
653 723
653 737
653 750
653 757
653 762
653 767
653 771
653 783
653 784
654 656
654 658
654 679
654 703
654 729
654 730
654 732
654 735
654 755
654 790
654 795
655 668
655 700
655 704
655 707
655 720
655 725
655 735
655 741
655 773
655 791
655 794
656 673
656 688
656 698
656 699
656 735
656 743
656 744
656 748
656 771
656 779
656 797
657 665
657 666
657 678
657 683
657 685
657 704
657 707
657 714
657 745
657 755
657 758
657 764
657 798
657 799
658 663
658 677
658 692
658 694
658 696
658 699
658 704
658 709
658 762
658 773
658 784
658 790
658 799
658 859
659 666
659 681
659 686
659 700
659 701
659 731
659 739
659 758
659 767
659 782
659 797
659 799
659 1001
660 662
660 676
660 685
660 690
660 707
660 731
660 738
660 742
660 775
660 799
661 671
661 673
661 695
661 698
661 708
661 712
661 719
661 729
661 737
661 740
661 745
661 746
661 754
661 758
661 764
661 769
661 770
661 771
662 670
662 679
662 692
662 696
662 701
662 711
662 712
662 717
662 722
662 725
662 748
662 749
662 751
662 756
662 761
662 769
662 796
662 1301
663 669
663 683
663 697
663 710
663 717
663 719
663 725
663 727
663 749
663 750
663 751
663 765
663 767
663 772
663 783
663 794
663 796
664 690
664 691
664 692
664 707
664 724
664 732
664 735
664 745
664 746
664 758
664 759
664 774
664 779
665 669
665 675
665 683
665 693
665 720
665 723
665 724
665 732
665 743
665 752
665 764
665 780
665 783
665 794
666 674
666 685
666 709
666 729
666 741
666 750
666 768
666 783
666 798
667 679
667 713
667 726
667 728
667 747
667 762
667 765
667 777
667 779
667 788
667 793
667 799
668 669
668 678
668 689
668 697
668 698
668 701
668 705
668 710
668 722
668 726
668 731
668 737
668 749
668 758
668 762
669 671
669 679
669 696
669 704
669 710
669 746
669 747
669 766
669 772
669 773
669 774
669 787
669 789
669 796
670 674
670 682
670 683
670 710
670 712
670 715
670 726
670 745
670 760
670 761
670 765
670 780
670 789
670 794
670 795
671 675
671 683
671 690
671 702
671 723
671 726
671 744
671 759
671 766
671 768
671 779
672 678
672 701
672 704
672 738
672 758
672 777
672 779
672 785
672 787
672 792
672 1497
673 676
673 685
673 687
673 702
673 709
673 715
673 720
673 724
673 757
673 772
673 776
673 786
674 688
674 712
674 716
674 743
674 755
674 781
674 790
674 1011
674 1077
675 698
675 703
675 725
675 732
675 764
675 778
675 792
675 796
676 695
676 700
676 706
676 711
676 725
676 729
676 738
676 751
676 755
676 757
676 764
676 776
676 1138
677 688
677 700
677 703
677 730
677 755
677 765
677 775
677 776
677 781
677 782
677 788
677 792
677 795
678 700
678 716
678 729
678 732
678 736
678 738
678 740
678 741
678 758
678 774
679 681
679 682
679 703
679 711
679 725
679 741
679 756
679 772
679 797
680 682
680 693
680 694
680 695
680 702
680 716
680 721
680 729
680 744
680 745
680 747
680 754
680 755
680 760
680 766
680 783
681 723
681 728
681 730
681 741
681 749
681 752
682 699
682 700
682 706
682 708
682 709
682 712
682 716
682 728
682 756
682 762
682 778
683 684
683 688
683 709
683 716
683 760
683 765
683 769
683 784
683 786
684 688
684 695
684 727
684 738
684 740
684 741
684 764
684 772
684 791
685 687
685 702
685 719
685 731
685 733
685 734
685 738
685 744
685 776
686 709
686 716
686 723
686 726
686 728
686 738
686 794
686 798
687 692
687 706
687 746
687 752
687 771
687 774
687 780
688 696
688 715
688 717
688 735
688 738
688 767
689 729
689 730
689 735
689 738
689 744
689 750
689 751
689 755
689 766
689 774
689 780
689 796
690 707
690 712
690 723
690 725
690 727
690 731
690 734
690 735
690 750
690 754
690 760
690 769
690 770
690 776
690 779
691 704
691 723
691 736
691 747
691 757
691 782
691 1656
692 697
692 700
692 743
692 744
692 749
692 754
692 760
692 763
692 764
692 772
692 773
692 778
692 786
692 787
693 694
693 704
693 708
693 714
693 730
693 734
693 748
693 752
693 756
693 757
693 759
693 767
693 768
693 775
693 783
693 784
693 786
694 696
694 697
694 704
694 705
694 709
694 727
694 737
694 738
694 745
694 750
694 763
694 767
694 777
695 707
695 720
695 722
695 730
695 733
695 749
695 777
695 791
695 797
695 798
696 708
696 710
696 713
696 719
696 721
696 724
696 726
696 734
696 735
696 737
696 742
696 743
696 744
696 746
696 760
696 762
696 772
696 773
696 788
696 792
697 708
697 713
697 714
697 725
697 759
697 771
697 793
697 794
697 795
697 797
697 799
698 708
698 719
698 723
698 730
698 731
698 744
698 767
698 782
698 786
698 790
699 705
699 706
699 714
699 722
699 730
699 746
699 750
699 751
699 752
699 753
699 758
699 773
699 774
699 791
699 797
699 1669
700 702
700 763
700 784
701 724
701 725
701 758
701 787
702 704
702 710
702 713
702 720
702 726
702 734
702 749
702 751
702 754
702 757
702 762
702 766
702 788
702 795
703 710
703 715
703 719
703 726
703 733
704 707
704 709
704 715
704 719
704 730
704 751
704 774
704 789
704 796
705 709
705 710
705 711
705 715
705 721
705 734
705 749
705 759
705 760
705 761
705 763
705 768
705 782
705 783
705 785
705 798
706 707
706 738
706 748
706 752
706 766
706 770
706 783
706 784
706 793
706 794
706 796
706 797
707 708
707 740
707 769
707 779
707 1216
708 719
708 732
708 734
708 755
708 764
708 781
708 790
709 776
709 779
709 784
709 794
709 798
709 799
710 718
710 720
710 722
710 729
710 763
710 765
710 770
710 773
710 781
710 792
710 797
711 716
711 723
711 730
711 743
711 748
711 749
711 755
711 775
712 716
712 743
712 748
712 761
712 767
712 770
712 774
712 775
712 790
712 791
713 725
713 734
713 739
713 740
713 744
713 747
713 750
713 755
713 762
713 773
713 777
713 788
713 790
714 726
714 758
714 761
714 765
714 778
714 780
714 790
714 793
714 795
714 798
714 799
715 722
715 734
715 756
715 761
715 765
715 767
715 776
715 782
715 783
715 1874
716 719
716 725
716 758
716 762
716 771
716 783
716 788
717 734
717 764
717 784
717 786
718 731
718 750
718 760
718 761
718 775
718 797
719 721
719 735
719 743
719 747
719 754
719 757
719 767
720 727
720 740
720 743
720 746
720 759
720 770
720 772
720 775
720 796
721 723
721 734
721 745
721 750
721 756
721 767
721 769
721 772
721 780
722 726
722 735
722 746
722 750
722 756
722 764
722 776
722 777
722 782
722 1262
723 724
723 734
723 743
723 752
723 763
723 771
723 773
723 775
723 783
723 796
723 799
724 763
724 773
724 779
724 780
725 727
725 729
725 733
725 741
725 751
725 755
725 767
725 781
725 784
726 742
726 746
726 747
726 767
726 784
726 787
726 796
727 735
727 739
727 751
727 760
727 763
727 778
727 780
727 786
727 787
727 794
727 795
727 796
728 730
728 737
728 740
728 745
728 757
728 762
728 764
728 767
728 776
728 790
728 792
728 796
729 759
729 762
729 772
729 775
729 781
729 783
729 792
729 860
730 739
730 743
730 745
730 746
730 751
730 752
730 767
730 773
730 774
730 779
730 795
731 734
731 753
731 765
731 773
731 789
731 794
731 795
732 747
732 792
733 752
733 757
733 762
733 766
733 774
733 781
733 791
734 741
734 742
734 746
734 748
734 757
734 774
734 776
734 784
734 791
735 745
735 746
735 765
735 772
735 773
735 793
736 737
736 740
736 757
736 776
736 797
737 738
737 744
737 749
737 761
737 785
737 791
738 739
738 743
738 749
738 750
738 751
738 756
738 777
738 783
738 791
738 795
739 743
739 746
739 767
739 786
739 796
739 798
740 746
740 783
740 798
741 742
741 748
741 755
741 766
741 769
741 772
741 781
742 747
742 761
742 763
742 770
742 776
742 780
742 782
742 789
742 793
743 767
743 775
743 784
744 763
744 778
744 790
744 792
745 752
745 754
745 756
745 758
745 761
745 768
745 773
745 777
745 785
745 794
745 799
746 765
746 779
746 780
746 790
746 791
746 792
747 758
747 765
747 771
747 776
747 794
748 765
748 772
748 777
748 785
748 786
748 788
749 769
749 772
749 790
749 794
750 751
750 753
750 757
750 761
750 767
750 771
750 772
750 785
750 786
750 1982
751 753
751 779
751 780
751 787
751 791
751 794
751 795
751 796
751 797
751 798
752 764
752 769
752 793
753 757
753 776
753 783
753 791
753 798
753 799
754 767
754 771
754 773
754 781
754 787
754 798
755 757
755 786
755 787
756 760
756 763
756 781
756 793
756 798
756 1894
757 764
757 775
757 778
757 782
757 789
757 797
757 1760
758 767
758 772
758 776
758 793
759 775
759 790
760 774
760 785
761 781
761 792
761 794
761 798
762 764
762 767
762 768
762 771
762 779
762 790
763 765
763 778
763 782
763 789
764 774
765 798
765 799
766 773
766 777
766 795
766 797
767 772
767 790
768 783
768 789
768 796
768 797
769 789
769 791
770 773
770 779
770 782
770 799
771 777
772 775
772 779
774 777
774 781
774 782
774 784
774 788
775 798
777 794
778 781
778 791
778 1432
779 780
779 793
779 795
780 786
782 783
782 790
782 791
784 1387
785 798
786 791
786 795
788 797
788 1163
789 799
790 791
790 793
792 793
793 794
794 799
794 1124
795 796
796 1611
798 799
800 802
800 804
800 806
800 811
800 818
800 820
800 862
800 874
800 882
800 902
800 911
800 914
800 921
800 925
800 956
800 978
800 982
800 989
800 995
801 813
801 818
801 826
801 845
801 850
801 863
801 867
801 883
801 887
801 892
801 901
801 902
801 904
801 918
801 929
801 931
801 932
801 954
801 957
801 962
801 975
801 978
801 981
801 984
801 988
801 994
802 809
802 814
802 824
802 835
802 837
802 845
802 859
802 870
802 877
802 895
802 908
802 912
802 913
802 948
802 957
802 964
802 981
802 992
803 810
803 822
803 824
803 848
803 866
803 878
803 891
803 907
803 946
803 949
803 958
803 964
803 968
803 974
803 976
804 825
804 828
804 834
804 836
804 844
804 862
804 864
804 877
804 878
804 887
804 895
804 902
804 908
804 935
804 957
804 967
804 978
804 985
804 987
804 992
804 995
805 807
805 821
805 826
805 832
805 850
805 861
805 879
805 881
805 884
805 888
805 901
805 919
805 920
805 924
805 925
805 927
805 941
805 944
805 948
805 981
805 995
805 997
805 999
806 811
806 812
806 821
806 825
806 826
806 827
806 840
806 842
806 851
806 852
806 865
806 881
806 886
806 887
806 888
806 889
806 891
806 914
806 916
806 927
806 935
806 941
806 970
806 989
807 821
807 824
807 835
807 848
807 852
807 856
807 859
807 867
807 873
807 885
807 902
807 916
807 942
807 960
807 970
807 984
808 830
808 836
808 837
808 838
808 853
808 862
808 867
808 874
808 928
808 950
808 973
808 976
808 987
808 990
809 820
809 825
809 827
809 839
809 848
809 857
809 863
809 871
809 875
809 885
809 888
809 916
809 928
809 930
809 944
809 947
809 954
809 957
809 958
809 979
809 995
809 996
810 817
810 843
810 845
810 880
810 885
810 894
810 907
810 909
810 913
810 918
810 931
810 939
810 940
810 944
810 947
810 950
810 951
810 970
810 979
810 989
810 990
810 994
811 825
811 826
811 834
811 842
811 844
811 847
811 849
811 855
811 888
811 892
811 893
811 895
811 898
811 904
811 914
811 933
811 934
811 938
811 942
811 982
812 832
812 849
812 857
812 861
812 864
812 884
812 890
812 895
812 903
812 918
812 935
812 938
812 939
812 948
812 965
812 967
812 973
812 990
812 995
812 996
813 823
813 857
813 866
813 870
813 876
813 882
813 891
813 904
813 922
813 947
813 950
813 954
813 955
813 958
813 972
813 973
813 999
814 817
814 821
814 824
814 831
814 837
814 840
814 842
814 846
814 848
814 849
814 853
814 882
814 885
814 898
814 901
814 910
814 920
814 925
814 955
814 964
814 981
814 990
815 818
815 822
815 831
815 833
815 842
815 849
815 859
815 860
815 867
815 871
815 891
815 899
815 903
815 912
815 915
815 917
815 922
815 934
815 936
815 969
815 975
815 978
815 998
816 825
816 842
816 844
816 872
816 877
816 898
816 916
816 925
816 938
816 942
816 956
816 974
816 977
816 981
817 827
817 840
817 841
817 844
817 855
817 857
817 884
817 890
817 894
817 918
817 925
817 948
817 955
817 964
817 968
817 971
817 978
817 985
817 991
817 996
818 825
818 829
818 849
818 857
818 860
818 862
818 869
818 879
818 882
818 883
818 894
818 899
818 904
818 907
818 917
818 919
818 938
818 969
818 973
819 820
819 823
819 882
819 885
819 893
819 905
819 913
819 935
819 944
819 947
819 948
819 952
819 958
819 970
819 973
819 975
819 978
819 980
819 993
820 826
820 836
820 843
820 854
820 869
820 879
820 890
820 891
820 895
820 903
820 904
820 936
820 939
820 949
820 959
820 961
820 966
820 968
820 973
820 986
820 996
821 834
821 836
821 838
821 851
821 863
821 870
821 875
821 876
821 879
821 884
821 887
821 889
821 914
821 927
821 937
821 938
821 956
821 976
821 983
822 833
822 843
822 845
822 852
822 853
822 864
822 881
822 885
822 902
822 926
822 936
822 940
822 944
822 945
822 964
822 968
822 970
822 973
822 974
822 982
822 986
823 825
823 847
823 875
823 876
823 884
823 891
823 897
823 908
823 919
823 929
823 933
823 935
823 938
823 945
823 951
823 955
823 961
823 973
823 982
823 990
823 995
823 997
824 825
824 832
824 834
824 849
824 850
824 870
824 875
824 895
824 919
824 940
824 947
824 957
824 970
824 972
824 980
824 981
824 995
824 998
825 832
825 833
825 841
825 844
825 850
825 855
825 868
825 871
825 873
825 882
825 884
825 900
825 926
825 930
825 933
825 937
825 953
825 961
825 978
825 981
825 989
826 828
826 831
826 839
826 842
826 846
826 848
826 851
826 859
826 862
826 863
826 881
826 884
826 889
826 893
826 894
826 914
826 915
826 918
826 987
826 994
826 995
827 838
827 851
827 868
827 875
827 888
827 901
827 904
827 908
827 915
827 921
827 926
827 938
827 939
827 942
827 946
827 950
827 953
827 956
827 961
827 966
827 969
827 977
827 982
827 997
828 839
828 854
828 864
828 895
828 896
828 901
828 912
828 918
828 931
828 935
828 960
828 965
828 967
828 972
828 975
828 976
829 835
829 837
829 865
829 867
829 873
829 877
829 890
829 891
829 896
829 906
829 912
829 926
829 928
829 936
829 953
829 954
829 978
829 986
830 834
830 838
830 851
830 852
830 856
830 862
830 875
830 881
830 885
830 896
830 902
830 903
830 904
830 906
830 915
830 916
830 925
830 950
830 963
830 983
830 984
831 860
831 862
831 864
831 886
831 890
831 893
831 914
831 919
831 923
831 934
831 939
831 942
831 949
831 960
831 963
831 970
831 992
832 844
832 868
832 885
832 895
832 905
832 909
832 912
832 913
832 927
832 936
832 944
832 955
832 981
832 985
832 989
833 843
833 856
833 931
833 945
833 951
833 957
833 987
833 992
833 997
834 839
834 842
834 843
834 845
834 854
834 905
834 906
834 924
834 927
834 939
834 946
834 957
834 961
834 979
834 985
834 993
834 996
835 909
835 925
835 934
835 938
835 939
835 941
835 961
835 987
835 989
835 995
836 865
836 878
836 888
836 892
836 893
836 902
836 911
836 931
836 947
836 955
836 957
836 959
836 966
836 979
837 857
837 858
837 866
837 870
837 893
837 903
837 904
837 907
837 916
837 940
837 957
837 993
838 853
838 857
838 862
838 863
838 896
838 923
838 933
838 934
838 938
838 952
838 985
838 994
838 997
839 840
839 869
839 872
839 880
839 891
839 895
839 911
839 914
839 919
839 972
839 977
839 978
839 981
839 988
839 999
840 844
840 846
840 847
840 850
840 852
840 869
840 886
840 888
840 890
840 896
840 915
840 923
840 924
840 948
840 961
840 973
840 983
841 860
841 863
841 865
841 882
841 886
841 888
841 919
841 925
841 926
841 934
841 944
841 946
841 955
841 982
841 995
842 851
842 857
842 860
842 867
842 881
842 888
842 920
842 923
842 926
842 935
842 939
842 940
842 943
842 947
842 965
842 966
842 978
842 987
842 988
842 993
843 850
843 862
843 864
843 867
843 877
843 890
843 891
843 913
843 915
843 924
843 926
843 961
843 967
843 968
843 975
843 980
843 987
844 864
844 879
844 883
844 914
844 918
844 920
844 921
844 925
844 929
844 952
844 954
844 955
844 965
844 967
844 979
844 981
844 984
844 998
844 1103
845 866
845 878
845 879
845 884
845 890
845 892
845 896
845 904
845 909
845 926
845 938
845 939
845 950
845 961
845 962
845 963
845 966
845 974
845 982
845 985
846 852
846 862
846 866
846 872
846 887
846 890
846 896
846 901
846 909
846 911
846 924
846 938
846 939
846 944
846 946
846 960
846 961
846 964
846 976
846 978
847 850
847 859
847 872
847 876
847 890
847 910
847 911
847 921
847 945
847 967
847 977
847 980
847 981
847 987
847 988
847 991
847 998
847 999
847 1147
848 858
848 860
848 862
848 870
848 881
848 882
848 893
848 895
848 906
848 917
848 918
848 931
848 937
848 944
848 962
848 966
848 967
848 968
848 980
849 857
849 859
849 864
849 870
849 889
849 894
849 901
849 911
849 923
849 928
849 932
849 934
849 965
849 968
849 970
849 971
849 974
849 984
849 990
849 999
850 858
850 887
850 896
850 905
850 913
850 914
850 938
850 943
850 946
850 950
850 951
850 955
850 972
850 979
850 994
850 1572
851 857
851 859
851 863
851 891
851 903
851 905
851 929
851 936
851 938
851 948
851 965
851 966
851 972
851 974
851 993
851 999
852 862
852 865
852 868
852 872
852 882
852 894
852 901
852 904
852 925
852 930
852 931
852 933
852 963
852 999
853 858
853 867
853 879
853 888
853 894
853 903
853 927
853 935
853 949
853 951
853 982
854 862
854 865
854 899
854 900
854 942
854 951
854 958
854 961
854 965
854 969
854 987
854 990
854 993
855 868
855 869
855 876
855 906
855 907
855 916
855 918
855 921
855 932
855 941
855 948
855 952
855 954
855 984
855 996
856 863
856 864
856 870
856 873
856 879
856 902
856 907
856 908
856 921
856 924
856 926
856 933
856 939
856 966
856 967
856 974
856 995
856 998
856 1388
857 859
857 863
857 866
857 868
857 878
857 895
857 907
857 910
857 922
857 929
857 960
857 961
857 983
857 986
857 999
858 869
858 878
858 881
858 900
858 922
858 926
858 930
858 932
858 939
859 861
859 862
859 903
859 911
859 931
859 935
859 954
859 963
859 967
859 969
859 972
859 973
859 975
859 979
859 983
859 985
859 989
860 864
860 880
860 883
860 898
860 937
860 941
860 951
860 954
860 979
861 863
861 868
861 870
861 871
861 908
861 918
861 924
861 934
861 935
861 937
861 963
861 966
861 971
861 990
862 866
862 869
862 875
862 876
862 889
862 897
862 903
862 926
862 933
862 939
862 943
862 947
862 954
862 963
862 975
862 981
862 993
862 999
863 873
863 880
863 894
863 898
863 920
863 924
863 926
863 935
863 940
863 957
863 967
863 969
863 981
863 990
863 992
863 998
864 874
864 906
864 907
864 956
864 959
864 963
864 979
864 980
864 987
864 996
864 998
865 873
865 876
865 878
865 881
865 887
865 894
865 897
865 905
865 909
865 920
865 932
865 956
865 957
865 975
865 992
865 993
865 997
865 999
866 870
866 900
866 903
866 907
866 915
866 921
866 933
866 940
866 955
866 966
866 969
866 977
866 993
866 994
866 997
867 878
867 880
867 895
867 903
867 910
867 912
867 918
867 934
868 875
868 879
868 880
868 883
868 896
868 897
868 903
868 912
868 937
868 948
868 960
868 980
868 994
868 997
869 889
869 896
869 913
869 918
869 924
869 948
869 949
869 950
869 952
869 962
869 972
869 992
869 998
869 1782
870 876
870 878
870 880
870 885
870 893
870 899
870 904
870 923
870 928
870 943
870 950
870 976
870 978
870 989
870 991
871 895
871 914
871 936
871 940
871 942
871 945
871 948
871 962
871 963
871 997
871 998
872 913
872 914
872 928
872 930
872 935
872 939
872 941
872 947
872 951
872 957
872 959
872 988
872 990
872 994
873 878
873 887
873 902
873 913
873 915
873 920
873 926
873 944
873 945
873 954
873 960
873 968
873 973
873 982
873 986
873 988
873 995
874 882
874 919
874 933
874 942
874 970
874 973
874 975
874 976
874 979
874 988
874 993
874 999
875 876
875 884
875 891
875 906
875 908
875 913
875 920
875 927
875 937
875 938
875 958
875 965
875 966
875 967
875 979
876 904
876 909
876 914
876 920
876 925
876 927
876 931
876 942
876 959
876 966
876 969
876 977
876 982
876 984
876 991
877 901
877 912
877 922
877 942
877 955
877 958
877 960
877 969
877 987
877 989
877 998
878 881
878 884
878 893
878 899
878 903
878 905
878 921
878 961
878 965
878 972
878 986
878 995
879 881
879 887
879 896
879 902
879 907
879 915
879 952
879 958
879 967
879 978
879 998
880 889
880 896
880 926
880 930
880 937
880 951
880 972
880 973
880 976
880 985
881 892
881 902
881 910
881 912
881 925
881 933
881 935
881 937
881 953
881 957
881 975
881 977
881 983
881 995
882 905
882 923
882 934
882 938
882 945
882 948
882 953
882 981
882 994
882 998
882 999
883 920
883 930
883 932
883 945
883 976
883 979
883 983
883 987
883 993
883 995
883 996
883 997
884 891
884 899
884 935
884 981
884 982
884 992
884 998
885 907
885 909
885 915
885 945
885 959
885 962
885 972
885 973
885 974
885 978
885 983
886 890
886 895
886 911
886 934
886 943
886 948
886 954
886 956
886 967
886 982
887 897
887 898
887 912
887 933
887 935
887 938
887 961
887 967
887 990
887 996
888 905
888 909
888 914
888 917
888 932
888 939
888 945
888 994
889 900
889 904
889 916
889 920
889 921
889 933
889 950
889 973
889 974
889 979
889 993
890 892
890 911
890 924
890 952
890 954
890 969
890 973
890 975
890 980
890 984
891 912
891 917
891 919
891 925
891 928
891 934
891 951
891 960
891 963
891 977
891 982
891 999
892 893
892 912
892 916
892 925
892 930
892 936
892 954
892 955
892 968
892 973
892 984
892 994
892 995
892 997
893 894
893 902
893 906
893 909
893 926
893 933
893 938
893 948
893 958
893 959
893 960
893 980
893 996
894 899
894 908
894 911
894 922
894 937
894 949
894 973
894 978
894 988
895 901
895 912
895 938
895 942
895 943
895 955
895 964
895 995
895 998
896 900
896 903
896 908
896 914
896 916
896 928
896 929
896 931
896 932
896 935
896 959
896 963
896 980
896 987
896 989
896 993
897 902
897 931
897 934
897 962
897 984
897 985
897 993
898 900
898 902
898 918
898 932
898 936
898 943
898 945
898 953
898 963
898 969
898 973
898 989
898 994
899 910
899 921
899 938
899 942
899 957
899 958
899 982
899 990
900 902
900 916
900 921
900 924
900 932
900 951
900 958
900 982
900 997
900 998
901 915
901 943
901 968
901 977
901 984
901 987
902 912
902 918
902 933
902 937
902 940
902 947
902 981
902 996
902 999
903 922
903 936
903 951
903 972
903 988
904 908
904 914
904 917
904 923
904 927
904 963
904 980
904 983
904 997
904 998
904 1555
905 908
905 923
905 927
905 934
905 955
905 960
905 973
905 975
905 997
906 912
906 921
906 933
906 935
906 948
906 966
907 911
907 926
907 932
907 950
907 951
907 956
907 963
907 967
907 971
907 983
907 985
907 986
907 993
908 918
908 922
908 948
908 958
908 963
908 977
908 983
909 912
909 923
909 937
909 949
909 957
909 961
909 962
909 968
909 971
909 977
909 982
909 986
909 993
909 995
909 996
910 915
910 916
910 919
910 922
910 924
910 939
910 945
910 949
910 965
910 966
910 971
910 990
911 923
911 926
911 928
911 932
911 937
911 966
911 970
911 973
912 917
912 922
912 929
912 954
912 970
912 983
912 986
912 999
913 934
913 937
913 953
913 959
913 970
913 981
913 984
913 987
913 989
913 996
913 999
914 921
914 929
914 945
914 949
914 964
914 967
914 969
914 990
914 997
915 950
915 960
915 963
915 973
915 991
916 956
916 958
916 965
916 974
917 924
917 935
917 970
917 978
917 985
917 994
917 995
917 1207
918 925
918 930
918 931
918 944
918 952
918 956
918 962
918 965
918 974
918 976
918 980
918 984
918 991
918 992
919 931
919 953
919 985
919 998
920 934
920 954
920 965
920 980
921 925
921 929
921 946
921 950
921 962
921 970
921 975
921 976
921 979
921 982
921 984
922 925
922 936
922 945
922 946
922 961
922 968
922 969
922 986
923 931
923 946
923 948
923 956
923 979
923 980
923 986
923 988
923 994
923 998
923 1929
924 929
924 942
924 944
924 946
924 957
924 965
924 966
924 971
924 982
924 983
924 994
924 995
925 927
925 936
925 941
925 951
925 961
925 976
925 979
926 951
926 952
926 965
926 972
926 987
926 989
926 992
927 954
927 972
927 973
927 975
927 977
927 998
928 929
928 934
928 952
928 959
928 965
928 970
928 995
929 935
929 967
929 970
929 981
929 983
929 986
929 988
929 992
930 939
930 944
930 947
930 949
930 980
930 989
930 991
931 961
931 970
931 971
931 978
931 989
931 996
932 938
932 952
932 958
932 966
932 972
932 977
932 988
932 998
933 940
933 946
933 949
933 964
933 970
933 976
933 983
933 985
933 996
934 937
934 944
934 947
934 952
934 953
934 956
934 963
934 966
934 971
934 975
934 987
934 995
935 948
935 951
935 960
935 975
935 988
935 989
936 938
936 961
936 976
936 980
936 987
936 989
937 958
937 964
937 986
937 988
938 942
938 943
938 955
938 961
938 980
938 981
938 986
939 945
939 959
939 974
939 976
939 981
939 994
939 999
940 942
940 948
940 955
940 972
940 983
940 990
941 944
941 949
941 959
941 975
941 984
941 989
941 999
942 946
942 961
942 971
942 993
942 999
943 955
943 969
943 976
943 992
944 946
944 953
944 982
944 988
944 993
945 956
945 960
945 975
945 976
945 992
946 963
946 979
946 983
946 990
947 948
947 955
947 958
947 960
947 966
947 977
947 992
947 995
947 998
948 958
948 973
948 979
948 995
949 951
949 959
949 965
949 977
949 985
949 988
950 984
951 954
951 963
951 965
951 969
951 981
951 989
952 968
952 985
952 995
953 980
953 986
954 955
954 986
955 961
955 966
955 968
955 972
955 985
955 989
956 959
956 973
956 975
956 978
956 993
956 994
957 958
957 960
957 962
957 989
957 994
958 959
958 965
958 967
958 968
958 978
958 992
959 971
959 973
959 984
959 1465
960 967
960 977
960 987
960 991
961 996
962 966
962 978
962 981
962 988
962 1192
963 964
963 975
963 996
964 965
964 978
964 992
965 975
965 979
966 970
966 974
966 978
966 985
966 995
967 974
967 988
968 988
968 998
969 974
969 975
969 978
969 990
970 973
970 978
970 979
970 984
970 996
970 997
971 972
971 982
972 994
973 981
973 984
973 997
974 998
975 990
977 982
978 985
978 994
978 996
979 983
979 998
980 982
981 984
981 996
982 988
982 993
983 985
983 994
983 997
983 1845
984 985
984 989
984 995
984 1821
986 992
987 992
987 998
988 992
988 998
991 997
992 993
992 998
993 996
995 996
1000 1018
1000 1020
1000 1024
1000 1025
1000 1026
1000 1035
1000 1037
1000 1047
1000 1064
1000 1068
1000 1076
1000 1100
1000 1101
1000 1118
1000 1131
1000 1132
1000 1135
1000 1139
1000 1163
1000 1168
1000 1175
1000 1181
1000 1190
1000 1193
1000 1197
1001 1022
1001 1023
1001 1034
1001 1053
1001 1075
1001 1076
1001 1099
1001 1103
1001 1129
1001 1138
1001 1144
1001 1146
1001 1147
1001 1149
1001 1153
1001 1154
1001 1177
1001 1180
1001 1184
1002 1015
1002 1023
1002 1025
1002 1052
1002 1055
1002 1056
1002 1075
1002 1084
1002 1089
1002 1093
1002 1097
1002 1115
1002 1120
1002 1124
1002 1128
1002 1135
1002 1140
1002 1145
1002 1147
1002 1154
1002 1191
1002 1195
1003 1023
1003 1026
1003 1031
1003 1033
1003 1035
1003 1053
1003 1063
1003 1073
1003 1076
1003 1086
1003 1102
1003 1108
1003 1119
1003 1123
1003 1142
1003 1143
1003 1149
1003 1150
1003 1151
1003 1156
1003 1172
1003 1183
1003 1184
1004 1011
1004 1017
1004 1019
1004 1020
1004 1041
1004 1083
1004 1089
1004 1095
1004 1107
1004 1109
1004 1130
1004 1131
1004 1135
1004 1166
1004 1174
1004 1198
1005 1014
1005 1029
1005 1034
1005 1052
1005 1053
1005 1055
1005 1058
1005 1075
1005 1094
1005 1096
1005 1131
1005 1142
1005 1165
1005 1167
1006 1036
1006 1041
1006 1075
1006 1076
1006 1081
1006 1088
1006 1091
1006 1095
1006 1108
1006 1136
1006 1164
1006 1169
1006 1171
1006 1187
1006 1191
1007 1037
1007 1038
1007 1045
1007 1058
1007 1065
1007 1077
1007 1078
1007 1079
1007 1091
1007 1118
1007 1127
1007 1133
1007 1140
1007 1148
1007 1153
1007 1155
1007 1161
1007 1188
1008 1011
1008 1020
1008 1042
1008 1062
1008 1065
1008 1070
1008 1073
1008 1133
1008 1144
1008 1155
1008 1157
1008 1159
1008 1167
1008 1185
1008 1192
1009 1023
1009 1051
1009 1071
1009 1076
1009 1092
1009 1105
1009 1106
1009 1119
1009 1122
1009 1125
1009 1127
1009 1134
1009 1159
1009 1162
1009 1167
1009 1169
1009 1174
1009 1176
1009 1187
1009 1191
1009 1194
1009 1534
1010 1011
1010 1016
1010 1017
1010 1025
1010 1039
1010 1044
1010 1059
1010 1063
1010 1070
1010 1077
1010 1097
1010 1109
1010 1112
1010 1142
1010 1158
1010 1162
1010 1165
1010 1168
1010 1174
1010 1176
1011 1014
1011 1039
1011 1046
1011 1064
1011 1070
1011 1104
1011 1106
1011 1107
1011 1117
1011 1120
1011 1121
1011 1138
1011 1143
1011 1148
1011 1166
1011 1197
1012 1013
1012 1018
1012 1041
1012 1046
1012 1051
1012 1056
1012 1070
1012 1084
1012 1087
1012 1096
1012 1109
1012 1118
1012 1121
1012 1128
1012 1143
1012 1146
1012 1157
1012 1169
1012 1170
1012 1174
1012 1176
1012 1191
1012 1199
1012 1573
1013 1014
1013 1030
1013 1032
1013 1040
1013 1068
1013 1080
1013 1095
1013 1103
1013 1104
1013 1107
1013 1109
1013 1114
1013 1126
1013 1135
1013 1138
1013 1148
1013 1149
1013 1169
1013 1188
1013 1198
1014 1017
1014 1023
1014 1026
1014 1032
1014 1035
1014 1054
1014 1061
1014 1084
1014 1093
1014 1099
1014 1101
1014 1113
1014 1121
1014 1129
1014 1167
1014 1170
1014 1194
1015 1016
1015 1042
1015 1049
1015 1054
1015 1055
1015 1057
1015 1060
1015 1070
1015 1071
1015 1077
1015 1090
1015 1091
1015 1109
1015 1140
1015 1149
1015 1166
1015 1174
1015 1191
1016 1018
1016 1020
1016 1047
1016 1059
1016 1062
1016 1069
1016 1071
1016 1076
1016 1084
1016 1085
1016 1095
1016 1102
1016 1107
1016 1111
1016 1120
1016 1137
1016 1143
1016 1146
1016 1164
1016 1172
1016 1175
1016 1177
1016 1188
1016 1196
1016 1197
1017 1038
1017 1039
1017 1055
1017 1060
1017 1063
1017 1073
1017 1089
1017 1091
1017 1093
1017 1106
1017 1129
1017 1130
1017 1138
1017 1143
1017 1150
1017 1176
1017 1179
1017 1187
1017 1197
1017 1198
1018 1021
1018 1025
1018 1028
1018 1032
1018 1036
1018 1071
1018 1080
1018 1085
1018 1087
1018 1089
1018 1097
1018 1100
1018 1125
1018 1127
1018 1130
1018 1131
1018 1134
1018 1152
1018 1155
1018 1157
1018 1163
1018 1164
1018 1166
1018 1178
1018 1184
1018 1189
1019 1031
1019 1042
1019 1068
1019 1101
1019 1110
1019 1114
1019 1122
1019 1130
1019 1135
1019 1139
1019 1140
1019 1153
1019 1160
1020 1034
1020 1063
1020 1074
1020 1079
1020 1089
1020 1097
1020 1106
1020 1114
1020 1124
1020 1130
1020 1172
1020 1180
1020 1190
1020 1192
1020 1194
1021 1031
1021 1032
1021 1050
1021 1058
1021 1069
1021 1078
1021 1081
1021 1085
1021 1104
1021 1107
1021 1116
1021 1119
1021 1123
1021 1129
1021 1132
1021 1135
1021 1137
1021 1151
1021 1173
1021 1174
1021 1193
1021 1195
1022 1028
1022 1047
1022 1048
1022 1056
1022 1057
1022 1080
1022 1099
1022 1107
1022 1135
1022 1147
1022 1156
1022 1158
1022 1164
1022 1166
1022 1171
1022 1175
1022 1183
1022 1186
1023 1028
1023 1036
1023 1045
1023 1057
1023 1072
1023 1078
1023 1080
1023 1105
1023 1134
1023 1145
1023 1152
1023 1171
1023 1176
1023 1187
1024 1028
1024 1035
1024 1053
1024 1078
1024 1097
1024 1103
1024 1106
1024 1117
1024 1123
1024 1131
1024 1144
1024 1166
1024 1173
1024 1176
1024 1192
1024 1196
1025 1052
1025 1066
1025 1081
1025 1089
1025 1115
1025 1129
1025 1130
1025 1137
1025 1163
1025 1169
1025 1170
1025 1176
1025 1179
1026 1043
1026 1051
1026 1061
1026 1069
1026 1079
1026 1091
1026 1095
1026 1099
1026 1110
1026 1119
1026 1127
1026 1141
1026 1165
1026 1166
1027 1045
1027 1050
1027 1051
1027 1062
1027 1064
1027 1067
1027 1070
1027 1072
1027 1080
1027 1082
1027 1090
1027 1091
1027 1098
1027 1125
1027 1132
1027 1141
1027 1143
1027 1151
1027 1166
1027 1183
1027 1188
1027 1194
1027 1198
1027 1259
1028 1029
1028 1030
1028 1031
1028 1035
1028 1048
1028 1060
1028 1065
1028 1087
1028 1107
1028 1121
1028 1127
1028 1128
1028 1155
1028 1157
1028 1163
1028 1189
1028 1194
1029 1033
1029 1043
1029 1060
1029 1061
1029 1070
1029 1079
1029 1089
1029 1150
1029 1156
1029 1158
1029 1160
1029 1170
1029 1171
1029 1179
1029 1185
1029 1187
1029 1199
1030 1031
1030 1038
1030 1044
1030 1048
1030 1053
1030 1056
1030 1060
1030 1063
1030 1065
1030 1073
1030 1074
1030 1081
1030 1083
1030 1090
1030 1099
1030 1108
1030 1155
1030 1158
1030 1182
1030 1192
1030 1199
1031 1038
1031 1049
1031 1051
1031 1052
1031 1075
1031 1088
1031 1101
1031 1104
1031 1107
1031 1121
1031 1122
1031 1135
1031 1137
1031 1169
1031 1178
1031 1194
1031 1196
1032 1041
1032 1044
1032 1048
1032 1067
1032 1068
1032 1074
1032 1078
1032 1093
1032 1095
1032 1112
1032 1139
1032 1150
1032 1151
1032 1153
1032 1155
1032 1168
1032 1189
1032 1191
1032 1193
1032 1194
1033 1041
1033 1050
1033 1052
1033 1085
1033 1098
1033 1101
1033 1110
1033 1120
1033 1130
1033 1136
1033 1144
1033 1149
1033 1158
1033 1166
1033 1174
1033 1190
1033 1192
1033 1195
1034 1063
1034 1072
1034 1073
1034 1075
1034 1081
1034 1093
1034 1102
1034 1113
1034 1117
1034 1118
1034 1132
1034 1133
1034 1146
1034 1148
1034 1149
1034 1150
1034 1154
1034 1160
1034 1182
1034 1193
1035 1038
1035 1040
1035 1042
1035 1053
1035 1056
1035 1059
1035 1061
1035 1064
1035 1076
1035 1077
1035 1086
1035 1104
1035 1105
1035 1124
1035 1127
1035 1132
1035 1145
1035 1155
1035 1198
1036 1037
1036 1065
1036 1067
1036 1073
1036 1075
1036 1077
1036 1081
1036 1086
1036 1088
1036 1090
1036 1094
1036 1095
1036 1097
1036 1099
1036 1103
1036 1117
1036 1124
1036 1131
1036 1139
1036 1148
1036 1156
1036 1172
1036 1183
1036 1188
1037 1056
1037 1068
1037 1084
1037 1085
1037 1090
1037 1110
1037 1114
1037 1120
1037 1156
1037 1163
1037 1164
1037 1188
1038 1046
1038 1049
1038 1064
1038 1066
1038 1067
1038 1074
1038 1097
1038 1100
1038 1105
1038 1118
1038 1124
1038 1128
1038 1130
1038 1144
1038 1151
1038 1171
1038 1176
1038 1186
1038 1187
1038 1189
1038 1193
1038 1196
1039 1044
1039 1051
1039 1066
1039 1086
1039 1096
1039 1117
1039 1130
1039 1131
1039 1152
1039 1156
1039 1173
1039 1185
1040 1050
1040 1077
1040 1082
1040 1092
1040 1095
1040 1108
1040 1113
1040 1121
1040 1127
1040 1187
1040 1193
1041 1047
1041 1055
1041 1057
1041 1058
1041 1060
1041 1064
1041 1093
1041 1096
1041 1107
1041 1116
1041 1128
1041 1146
1041 1155
1041 1185
1041 1186
1041 1187
1042 1065
1042 1069
1042 1074
1042 1077
1042 1078
1042 1104
1042 1108
1042 1109
1042 1142
1042 1143
1042 1161
1042 1175
1042 1177
1042 1196
1042 1198
1042 1199
1043 1061
1043 1064
1043 1072
1043 1074
1043 1085
1043 1090
1043 1112
1043 1127
1043 1129
1043 1131
1043 1132
1043 1160
1044 1046
1044 1048
1044 1052
1044 1054
1044 1061
1044 1071
1044 1085
1044 1088
1044 1092
1044 1093
1044 1110
1044 1121
1044 1127
1044 1141
1044 1151
1044 1163
1044 1174
1044 1183
1044 1188
1044 1189
1045 1050
1045 1056
1045 1064
1045 1067
1045 1079
1045 1088
1045 1089
1045 1090
1045 1096
1045 1129
1045 1132
1045 1155
1045 1160
1045 1173
1045 1174
1046 1049
1046 1060
1046 1064
1046 1065
1046 1075
1046 1083
1046 1087
1046 1107
1046 1117
1046 1120
1046 1144
1046 1154
1046 1161
1046 1187
1046 1190
1046 1195
1046 1199
1047 1055
1047 1076
1047 1078
1047 1084
1047 1091
1047 1094
1047 1097
1047 1113
1047 1119
1047 1122
1047 1127
1047 1140
1047 1142
1047 1156
1047 1174
1047 1189
1047 1191
1047 1197
1048 1053
1048 1064
1048 1078
1048 1080
1048 1083
1048 1092
1048 1098
1048 1104
1048 1111
1048 1116
1048 1132
1048 1143
1048 1146
1048 1172
1048 1173
1048 1183
1049 1050
1049 1058
1049 1080
1049 1082
1049 1086
1049 1088
1049 1089
1049 1093
1049 1100
1049 1105
1049 1111
1049 1124
1049 1157
1049 1159
1049 1177
1050 1056
1050 1061
1050 1065
1050 1089
1050 1092
1050 1104
1050 1123
1050 1128
1050 1132
1050 1143
1050 1149
1050 1150
1050 1157
1050 1165
1050 1172
1050 1175
1050 1182
1050 1186
1050 1194
1051 1124
1051 1130
1051 1135
1051 1149
1051 1163
1051 1165
1051 1170
1051 1179
1051 1185
1051 1190
1052 1064
1052 1066
1052 1067
1052 1071
1052 1082
1052 1083
1052 1087
1052 1105
1052 1118
1052 1121
1052 1122
1052 1136
1052 1140
1052 1141
1052 1145
1052 1152
1052 1173
1052 1196
1053 1059
1053 1068
1053 1074
1053 1078
1053 1084
1053 1091
1053 1094
1053 1111
1053 1120
1053 1133
1053 1151
1053 1152
1053 1156
1053 1159
1053 1165
1053 1169
1053 1186
1053 1188
1053 1189
1054 1063
1054 1068
1054 1072
1054 1078
1054 1084
1054 1095
1054 1097
1054 1110
1054 1134
1054 1148
1054 1150
1054 1151
1054 1159
1054 1162
1054 1182
1054 1188
1054 1927
1055 1071
1055 1073
1055 1094
1055 1099
1055 1101
1055 1114
1055 1144
1055 1146
1055 1147
1055 1170
1055 1183
1055 1188
1055 1189
1055 1193
1056 1064
1056 1084
1056 1094
1056 1100
1056 1108
1056 1122
1056 1128
1056 1129
1056 1137
1056 1142
1056 1154
1056 1178
1056 1181
1056 1187
1057 1070
1057 1078
1057 1081
1057 1085
1057 1103
1057 1109
1057 1116
1057 1126
1057 1134
1057 1137
1057 1153
1057 1171
1057 1180
1057 1181
1057 1188
1057 1193
1058 1070
1058 1082
1058 1097
1058 1098
1058 1104
1058 1107
1058 1109
1058 1111
1058 1112
1058 1118
1058 1124
1058 1125
1058 1139
1058 1146
1058 1155
1058 1157
1058 1177
1058 1186
1059 1072
1059 1078
1059 1080
1059 1084
1059 1093
1059 1115
1059 1119
1059 1123
1059 1126
1059 1139
1059 1163
1059 1199
1060 1064
1060 1067
1060 1091
1060 1097
1060 1099
1060 1112
1060 1140
1060 1146
1060 1147
1060 1171
1060 1173
1060 1186
1060 1191
1061 1065
1061 1076
1061 1079
1061 1085
1061 1109
1061 1129
1061 1149
1061 1156
1061 1162
1061 1163
1061 1167
1061 1174
1061 1181
1061 1189
1061 1198
1062 1073
1062 1089
1062 1099
1062 1105
1062 1106
1062 1145
1062 1157
1062 1172
1062 1176
1062 1178
1062 1193
1063 1077
1063 1082
1063 1093
1063 1096
1063 1106
1063 1112
1063 1135
1063 1136
1063 1151
1063 1184
1064 1098
1064 1101
1064 1105
1064 1106
1064 1122
1064 1135
1064 1151
1064 1153
1064 1154
1064 1161
1064 1165
1064 1166
1064 1182
1064 1199
1065 1068
1065 1076
1065 1080
1065 1082
1065 1089
1065 1100
1065 1103
1065 1108
1065 1109
1065 1110
1065 1111
1065 1121
1065 1137
1065 1140
1065 1149
1065 1180
1065 1182
1065 1185
1066 1085
1066 1089
1066 1091
1066 1118
1066 1142
1066 1147
1066 1153
1066 1187
1067 1076
1067 1089
1067 1095
1067 1104
1067 1131
1067 1133
1067 1137
1067 1138
1067 1176
1067 1178
1067 1189
1067 1194
1067 1197
1067 1745
1068 1071
1068 1079
1068 1102
1068 1103
1068 1104
1068 1113
1068 1116
1068 1118
1068 1121
1068 1123
1068 1128
1068 1131
1068 1134
1068 1141
1068 1166
1068 1172
1068 1178
1068 1192
1068 1196
1068 1199
1069 1079
1069 1098
1069 1109
1069 1115
1069 1118
1069 1142
1069 1158
1069 1169
1069 1181
1069 1185
1069 1199
1070 1074
1070 1075
1070 1080
1070 1082
1070 1085
1070 1103
1070 1106
1070 1116
1070 1135
1070 1178
1070 1192
1071 1080
1071 1097
1071 1098
1071 1106
1071 1108
1071 1115
1071 1129
1071 1136
1071 1149
1071 1152
1071 1161
1071 1174
1071 1191
1071 1195
1072 1099
1072 1102
1072 1124
1072 1129
1072 1138
1072 1144
1072 1154
1072 1159
1072 1163
1072 1165
1072 1175
1072 1182
1072 1192
1073 1075
1073 1079
1073 1085
1073 1104
1073 1128
1073 1130
1073 1136
1073 1147
1073 1155
1073 1161
1073 1162
1073 1165
1073 1180
1073 1181
1073 1187
1073 1197
1074 1087
1074 1090
1074 1096
1074 1100
1074 1110
1074 1111
1074 1118
1074 1119
1074 1123
1074 1129
1074 1134
1074 1161
1074 1162
1074 1171
1074 1179
1074 1187
1074 1196
1074 1197
1075 1106
1075 1108
1075 1118
1075 1128
1075 1135
1075 1150
1075 1151
1075 1157
1075 1162
1075 1178
1075 1184
1075 1192
1075 1194
1076 1103
1076 1117
1076 1137
1076 1155
1076 1156
1076 1158
1076 1167
1076 1173
1076 1195
1076 1534
1077 1090
1077 1105
1077 1115
1077 1122
1077 1147
1077 1162
1077 1163
1077 1170
1077 1171
1077 1188
1078 1106
1078 1112
1078 1140
1078 1144
1078 1157
1078 1171
1078 1195
1078 1197
1079 1099
1079 1118
1079 1120
1079 1127
1079 1128
1079 1131
1079 1154
1079 1155
1079 1174
1079 1195
1079 1196
1080 1090
1080 1091
1080 1123
1080 1142
1080 1156
1080 1177
1080 1183
1080 1906
1081 1107
1081 1111
1081 1115
1081 1124
1081 1125
1081 1128
1081 1160
1081 1173
1081 1180
1081 1193
1081 1195
1082 1097
1082 1101
1082 1104
1082 1108
1082 1117
1082 1121
1082 1143
1082 1161
1082 1193
1082 1198
1083 1085
1083 1091
1083 1112
1083 1119
1083 1142
1083 1146
1083 1164
1083 1173
1083 1179
1083 1193
1084 1089
1084 1113
1084 1116
1084 1119
1084 1122
1084 1142
1084 1144
1084 1152
1084 1161
1084 1174
1084 1185
1084 1197
1084 1199
1085 1090
1085 1096
1085 1099
1085 1109
1085 1148
1085 1194
1086 1097
1086 1120
1086 1130
1086 1132
1086 1134
1086 1137
1086 1139
1086 1148
1086 1155
1086 1158
1086 1184
1086 1196
1087 1098
1087 1106
1087 1133
1087 1135
1087 1143
1087 1149
1087 1153
1087 1159
1087 1160
1087 1161
1087 1167
1087 1169
1087 1170
1087 1180
1087 1191
1088 1097
1088 1102
1088 1106
1088 1108
1088 1115
1088 1141
1088 1147
1088 1152
1088 1157
1088 1165
1088 1167
1088 1170
1088 1179
1088 1197
1089 1096
1089 1111
1089 1115
1089 1116
1089 1128
1089 1131
1089 1133
1089 1162
1089 1163
1089 1185
1089 1194
1090 1100
1090 1107
1090 1124
1090 1135
1090 1169
1090 1195
1090 1199
1090 1625
1091 1093
1091 1095
1091 1106
1091 1141
1091 1154
1091 1166
1091 1178
1091 1181
1092 1119
1092 1134
1092 1149
1092 1150
1092 1175
1092 1189
1092 1192
1092 1194
1092 1196
1093 1099
1093 1101
1093 1103
1093 1106
1093 1124
1093 1141
1093 1145
1093 1146
1093 1150
1093 1168
1093 1176
1093 1177
1093 1184
1093 1186
1093 1196
1093 1199
1094 1097
1094 1102
1094 1105
1094 1119
1094 1120
1094 1127
1094 1129
1094 1144
1094 1150
1094 1151
1094 1162
1094 1175
1094 1181
1094 1192
1094 1194
1094 1195
1095 1098
1095 1100
1095 1125
1095 1148
1095 1153
1095 1199
1096 1100
1096 1103
1096 1123
1096 1125
1096 1131
1096 1145
1096 1153
1096 1158
1096 1188
1097 1099
1097 1102
1097 1122
1097 1123
1097 1129
1097 1132
1097 1144
1097 1151
1097 1167
1097 1170
1097 1198
1098 1105
1098 1106
1098 1110
1098 1113
1098 1115
1098 1130
1098 1151
1098 1173
1098 1175
1098 1176
1098 1189
1099 1109
1099 1133
1099 1136
1099 1139
1099 1170
1100 1102
1100 1104
1100 1105
1100 1113
1100 1115
1100 1127
1100 1131
1100 1137
1100 1167
1100 1171
1100 1172
1100 1185
1100 1187
1100 1191
1100 1196
1100 1496
1101 1109
1101 1123
1101 1125
1101 1143
1101 1166
1102 1125
1102 1126
1102 1129
1102 1169
1102 1171
1102 1176
1102 1180
1102 1183
1102 1184
1103 1104
1103 1123
1103 1127
1103 1174
1103 1193
1104 1113
1104 1116
1104 1117
1104 1118
1104 1122
1104 1140
1104 1158
1104 1161
1105 1109
1105 1110
1105 1120
1105 1143
1105 1153
1105 1156
1105 1173
1105 1174
1105 1175
1105 1183
1105 1184
1105 1199
1105 1266
1106 1127
1106 1130
1106 1146
1106 1147
1106 1166
1106 1171
1106 1179
1106 1198
1107 1114
1107 1145
1107 1148
1107 1156
1107 1172
1107 1187
1108 1119
1108 1125
1108 1147
1108 1153
1108 1170
1108 1171
1108 1185
1108 1192
1108 1194
1108 1199
1109 1113
1109 1132
1109 1136
1109 1147
1109 1149
1109 1162
1109 1163
1109 1188
1110 1132
1110 1161
1110 1173
1110 1189
1110 1190
1110 1194
1110 1196
1110 1921
1111 1112
1111 1117
1111 1120
1111 1152
1111 1161
1111 1171
1111 1174
1111 1196
1112 1115
1112 1127
1112 1134
1112 1157
1112 1179
1113 1118
1113 1124
1113 1130
1113 1143
1113 1148
1113 1158
1113 1161
1113 1175
1114 1143
1114 1154
1114 1157
1114 1161
1114 1198
1115 1125
1115 1135
1115 1147
1115 1152
1115 1190
1115 1195
1115 1395
1116 1121
1116 1123
1116 1132
1116 1140
1116 1147
1116 1156
1116 1163
1116 1165
1116 1167
1116 1172
1116 1173
1116 1183
1116 1188
1116 1195
1116 1198
1116 1199
1117 1127
1117 1177
1117 1179
1117 1192
1117 1194
1117 1196
1118 1121
1118 1138
1118 1151
1118 1165
1118 1173
1118 1177
1118 1183
1118 1186
1118 1189
1119 1130
1119 1136
1119 1145
1119 1153
1119 1155
1119 1172
1119 1177
1119 1178
1119 1183
1119 1188
1120 1132
1120 1147
1120 1152
1120 1179
1120 1196
1120 1198
1121 1170
1121 1174
1121 1177
1121 1178
1121 1188
1121 1199
1122 1129
1122 1136
1122 1143
1122 1147
1122 1153
1122 1157
1122 1172
1122 1174
1122 1188
1122 1191
1123 1124
1123 1127
1123 1136
1123 1139
1123 1146
1123 1165
1123 1168
1123 1172
1123 1177
1123 1182
1123 1184
1124 1137
1124 1150
1124 1160
1124 1164
1125 1133
1125 1166
1125 1190
1125 1193
1126 1145
1126 1148
1126 1159
1126 1164
1126 1179
1127 1129
1127 1130
1127 1134
1127 1137
1127 1138
1127 1148
1127 1159
1127 1163
1127 1178
1127 1183
1127 1187
1127 1197
1128 1132
1128 1133
1128 1139
1128 1169
1128 1176
1128 1177
1128 1189
1129 1141
1129 1163
1129 1166
1129 1170
1129 1499
1130 1152
1130 1175
1130 1176
1130 1192
1130 1197
1131 1169
1131 1176
1131 1177
1132 1145
1132 1159
1132 1160
1132 1164
1132 1189
1133 1156
1133 1173
1133 1177
1133 1185
1134 1136
1134 1163
1134 1168
1135 1138
1135 1154
1135 1198
1136 1139
1136 1154
1136 1160
1136 1184
1137 1182
1137 1185
1137 1186
1137 1196
1138 1194
1139 1151
1139 1166
1139 1172
1139 1178
1139 1191
1139 1194
1140 1144
1140 1157
1140 1180
1140 1196
1141 1142
1141 1151
1141 1152
1141 1167
1141 1170
1141 1174
1141 1185
1142 1143
1142 1147
1142 1152
1142 1163
1142 1167
1142 1169
1142 1175
1142 1183
1142 1187
1142 1199
1143 1154
1143 1162
1143 1165
1143 1183
1144 1151
1144 1173
1144 1179
1144 1181
1144 1182
1145 1151
1145 1155
1145 1162
1145 1185
1145 1189
1145 1194
1145 1196
1145 1568
1146 1161
1146 1179
1146 1183
1147 1151
1147 1161
1147 1179
1147 1188
1147 1194
1148 1163
1148 1172
1148 1187
1148 1197
1149 1157
1149 1165
1149 1177
1149 1185
1149 1191
1149 1195
1150 1153
1150 1162
1150 1174
1150 1180
1150 1197
1151 1157
1151 1165
1151 1178
1151 1180
1151 1195
1152 1157
1152 1159
1152 1160
1152 1171
1152 1175
1152 1184
1152 1194
1153 1163
1153 1167
1153 1172
1153 1178
1153 1184
1153 1186
1153 1187
1153 1197
1154 1158
1154 1197
1155 1177
1155 1179
1155 1182
1155 1196
1155 1198
1156 1157
1156 1162
1156 1169
1156 1178
1156 1363
1157 1159
1157 1192
1158 1173
1158 1180
1158 1190
1158 1198
1159 1161
1159 1165
1159 1175
1159 1177
1159 1181
1159 1183
1159 1184
1159 1190
1159 1194
1160 1164
1160 1194
1160 1196
1161 1179
1161 1182
1161 1192
1161 1197
1162 1165
1162 1170
1162 1178
1162 1193
1162 1197
1163 1166
1163 1171
1163 1172
1163 1178
1163 1185
1163 1187
1163 1198
1164 1167
1164 1168
1164 1172
1164 1182
1164 1193
1164 1194
1164 1199
1165 1185
1166 1175
1166 1180
1166 1190
1166 1192
1167 1169
1167 1176
1167 1199
1168 1174
1168 1182
1168 1191
1168 1193
1168 1199
1169 1174
1169 1175
1169 1179
1169 1181
1169 1193
1169 1199
1170 1172
1170 1174
1170 1184
1170 1187
1170 1193
1170 1198
1170 1199
1171 1178
1171 1194
1172 1173
1172 1195
1172 1199
1173 1177
1173 1191
1173 1193
1174 1178
1174 1198
1175 1177
1175 1187
1175 1194
1176 1192
1178 1187
1178 1198
1179 1192
1179 1882
1180 1184
1180 1195
1180 1198
1181 1189
1181 1196
1182 1193
1182 1196
1183 1188
1183 1193
1185 1192
1187 1190
1189 1197
1194 1198
1195 1199
1196 1197
1200 1202
1200 1211
1200 1220
1200 1233
1200 1240
1200 1257
1200 1258
1200 1273
1200 1283
1200 1291
1200 1296
1200 1303
1200 1309
1200 1318
1200 1322
1200 1334
1200 1335
1200 1351
1200 1352
1200 1368
1200 1391
1201 1210
1201 1215
1201 1224
1201 1227
1201 1239
1201 1273
1201 1286
1201 1287
1201 1358
1201 1370
1201 1371
1201 1378
1201 1381
1202 1220
1202 1232
1202 1233
1202 1248
1202 1257
1202 1264
1202 1280
1202 1281
1202 1293
1202 1300
1202 1326
1202 1344
1202 1384
1202 1395
1203 1205
1203 1227
1203 1254
1203 1264
1203 1265
1203 1268
1203 1306
1203 1310
1203 1312
1203 1330
1203 1332
1203 1375
1203 1382
1203 1398
1204 1213
1204 1240
1204 1250
1204 1255
1204 1258
1204 1264
1204 1266
1204 1270
1204 1360
1204 1368
1204 1370
1204 1383
1204 1386
1205 1208
1205 1231
1205 1248
1205 1304
1205 1340
1205 1350
1205 1354
1205 1361
1205 1363
1205 1373
1205 1385
1206 1226
1206 1229
1206 1264
1206 1265
1206 1280
1206 1281
1206 1301
1206 1312
1206 1315
1206 1321
1206 1324
1206 1328
1206 1345
1206 1353
1206 1360
1206 1362
1206 1363
1206 1370
1206 1375
1206 1383
1207 1232
1207 1250
1207 1253
1207 1271
1207 1281
1207 1292
1207 1317
1207 1319
1207 1344
1207 1345
1207 1363
1207 1367
1207 1368
1207 1374
1207 1375
1207 1380
1207 1388
1207 1394
1207 1397
1208 1211
1208 1225
1208 1236
1208 1257
1208 1271
1208 1280
1208 1290
1208 1296
1208 1302
1208 1310
1208 1314
1208 1318
1208 1323
1208 1330
1208 1331
1208 1351
1208 1355
1208 1357
1208 1368
1208 1385
1208 1389
1208 1390
1208 1399
1209 1218
1209 1230
1209 1231
1209 1241
1209 1245
1209 1265
1209 1293
1209 1299
1209 1304
1209 1305
1209 1313
1209 1367
1209 1370
1209 1373
1209 1375
1210 1236
1210 1260
1210 1279
1210 1287
1210 1288
1210 1293
1210 1297
1210 1305
1210 1310
1210 1313
1210 1328
1210 1334
1210 1342
1210 1344
1210 1350
1210 1352
1210 1364
1210 1372
1210 1373
1210 1379
1210 1390
1211 1245
1211 1247
1211 1250
1211 1257
1211 1258
1211 1269
1211 1291
1211 1293
1211 1306
1211 1326
1211 1341
1211 1342
1211 1345
1211 1347
1211 1353
1211 1360
1211 1377
1211 1395
1211 1399
1212 1224
1212 1272
1212 1273
1212 1286
1212 1292
1212 1300
1212 1306
1212 1311
1212 1322
1212 1333
1212 1336
1212 1388
1212 1392
1212 1393
1213 1215
1213 1218
1213 1219
1213 1224
1213 1248
1213 1254
1213 1259
1213 1264
1213 1268
1213 1276
1213 1281
1213 1310
1213 1315
1213 1318
1213 1322
1213 1327
1213 1347
1213 1361
1213 1374
1213 1393
1214 1223
1214 1230
1214 1256
1214 1259
1214 1272
1214 1284
1214 1285
1214 1304
1214 1306
1214 1310
1214 1316
1214 1326
1214 1352
1214 1360
1214 1369
1214 1385
1215 1218
1215 1219
1215 1232
1215 1235
1215 1251
1215 1295
1215 1296
1215 1298
1215 1320
1215 1345
1215 1353
1215 1390
1215 1392
1216 1240
1216 1243
1216 1261
1216 1271
1216 1272
1216 1278
1216 1280
1216 1297
1216 1301
1216 1319
1216 1327
1216 1342
1216 1349
1216 1350
1216 1354
1216 1358
1216 1369
1216 1378
1216 1391
1216 1395
1216 1398
1217 1219
1217 1226
1217 1246
1217 1247
1217 1250
1217 1267
1217 1278
1217 1283
1217 1290
1217 1300
1217 1305
1217 1316
1217 1326
1217 1342
1217 1346
1217 1364
1217 1365
1217 1373
1217 1378
1217 1397
1218 1225
1218 1248
1218 1252
1218 1271
1218 1272
1218 1273
1218 1275
1218 1276
1218 1291
1218 1301
1218 1312
1218 1314
1218 1321
1218 1325
1218 1338
1218 1344
1218 1355
1218 1373
1218 1378
1218 1384
1219 1221
1219 1244
1219 1246
1219 1253
1219 1266
1219 1267
1219 1268
1219 1275
1219 1287
1219 1292
1219 1301
1219 1302
1219 1307
1219 1330
1219 1334
1219 1340
1219 1343
1219 1355
1219 1362
1219 1380
1219 1383
1219 1396
1220 1243
1220 1253
1220 1257
1220 1262
1220 1269
1220 1340
1220 1345
1220 1349
1220 1357
1220 1376
1220 1382
1221 1231
1221 1239
1221 1242
1221 1255
1221 1271
1221 1272
1221 1280
1221 1332
1221 1339
1221 1346
1221 1366
1221 1367
1221 1377
1221 1381
1221 1385
1222 1227
1222 1233
1222 1249
1222 1252
1222 1255
1222 1256
1222 1258
1222 1261
1222 1276
1222 1291
1222 1295
1222 1334
1222 1345
1222 1371
1222 1372
1222 1657
1223 1233
1223 1245
1223 1254
1223 1291
1223 1298
1223 1299
1223 1301
1223 1305
1223 1308
1223 1310
1223 1316
1223 1328
1223 1336
1223 1355
1223 1358
1223 1363
1223 1390
1224 1249
1224 1253
1224 1258
1224 1260
1224 1271
1224 1315
1224 1319
1224 1325
1224 1342
1224 1349
1224 1378
1224 1388
1224 1396
1224 1397
1225 1234
1225 1240
1225 1250
1225 1267
1225 1271
1225 1284
1225 1292
1225 1315
1225 1335
1225 1351
1225 1366
1225 1389
1225 1395
1226 1242
1226 1245
1226 1250
1226 1264
1226 1269
1226 1272
1226 1274
1226 1285
1226 1293
1226 1301
1226 1322
1226 1323
1226 1326
1226 1332
1226 1345
1226 1354
1226 1379
1226 1382
1226 1386
1226 1394
1227 1245
1227 1252
1227 1255
1227 1268
1227 1273
1227 1283
1227 1286
1227 1288
1227 1292
1227 1296
1227 1298
1227 1299
1227 1307
1227 1337
1227 1340
1227 1345
1227 1348
1227 1360
1227 1378
1227 1380
1228 1253
1228 1256
1228 1272
1228 1276
1228 1278
1228 1298
1228 1314
1228 1316
1228 1325
1228 1329
1228 1332
1228 1342
1228 1345
1228 1355
1228 1363
1228 1371
1228 1379
1228 1382
1228 1387
1229 1231
1229 1243
1229 1252
1229 1254
1229 1268
1229 1271
1229 1272
1229 1277
1229 1282
1229 1283
1229 1291
1229 1292
1229 1293
1229 1294
1229 1322
1229 1330
1229 1341
1229 1360
1229 1378
1229 1395
1230 1234
1230 1238
1230 1243
1230 1252
1230 1253
1230 1270
1230 1283
1230 1286
1230 1295
1230 1297
1230 1306
1230 1308
1230 1326
1230 1343
1230 1345
1230 1347
1230 1352
1230 1362
1230 1377
1230 1385
1231 1234
1231 1235
1231 1249
1231 1251
1231 1253
1231 1255
1231 1260
1231 1274
1231 1279
1231 1287
1231 1296
1231 1302
1231 1317
1231 1342
1231 1348
1231 1350
1231 1360
1231 1383
1231 1385
1231 1394
1232 1242
1232 1260
1232 1265
1232 1266
1232 1270
1232 1271
1232 1278
1232 1288
1232 1306
1232 1316
1232 1343
1232 1346
1232 1349
1232 1355
1232 1376
1232 1387
1233 1248
1233 1251
1233 1252
1233 1253
1233 1257
1233 1269
1233 1281
1233 1286
1233 1303
1233 1328
1233 1332
1233 1349
1233 1357
1233 1368
1233 1374
1233 1384
1233 1393
1234 1242
1234 1249
1234 1287
1234 1288
1234 1289
1234 1297
1234 1333
1234 1346
1234 1347
1234 1355
1234 1361
1234 1363
1234 1378
1234 1389
1235 1254
1235 1275
1235 1310
1235 1315
1235 1317
1235 1324
1235 1355
1236 1239
1236 1282
1236 1308
1236 1334
1236 1356
1236 1360
1236 1362
1236 1371
1236 1380
1236 1395
1237 1240
1237 1258
1237 1266
1237 1285
1237 1302
1237 1304
1237 1306
1237 1307
1237 1317
1237 1322
1237 1324
1237 1330
1237 1338
1237 1355
1237 1362
1237 1363
1237 1379
1237 1381
1237 1384
1237 1392
1238 1254
1238 1255
1238 1261
1238 1274
1238 1275
1238 1279
1238 1295
1238 1304
1238 1310
1238 1311
1238 1322
1238 1331
1238 1354
1238 1357
1238 1358
1238 1365
1238 1372
1238 1381
1238 1384
1238 1387
1238 1399
1239 1243
1239 1244
1239 1247
1239 1253
1239 1259
1239 1269
1239 1277
1239 1299
1239 1304
1239 1314
1239 1315
1239 1319
1239 1333
1239 1339
1239 1373
1239 1601
1240 1246
1240 1253
1240 1256
1240 1262
1240 1280
1240 1281
1240 1290
1240 1294
1240 1297
1240 1298
1240 1306
1240 1307
1240 1310
1240 1324
1240 1337
1240 1339
1240 1347
1240 1356
1240 1370
1240 1373
1240 1389
1241 1245
1241 1262
1241 1264
1241 1271
1241 1277
1241 1281
1241 1282
1241 1286
1241 1327
1241 1338
1241 1346
1241 1365
1241 1371
1241 1372
1242 1249
1242 1263
1242 1269
1242 1277
1242 1288
1242 1302
1242 1304
1242 1305
1242 1317
1242 1318
1242 1330
1242 1371
1242 1378
1242 1379
1242 1385
1242 1386
1242 1387
1242 1391
1243 1251
1243 1256
1243 1279
1243 1294
1243 1301
1243 1320
1243 1352
1243 1369
1243 1377
1243 1379
1243 1381
1243 1386
1243 1395
1244 1249
1244 1252
1244 1271
1244 1282
1244 1300
1244 1303
1244 1318
1244 1326
1244 1337
1244 1342
1244 1348
1244 1350
1244 1352
1244 1353
1244 1355
1244 1360
1244 1371
1244 1381
1244 1382
1244 1387
1244 1395
1245 1251
1245 1256
1245 1257
1245 1270
1245 1278
1245 1285
1245 1298
1245 1316
1245 1330
1245 1331
1245 1345
1245 1352
1245 1353
1246 1248
1246 1261
1246 1263
1246 1274
1246 1277
1246 1287
1246 1289
1246 1291
1246 1298
1246 1299
1246 1310
1246 1316
1246 1320
1246 1336
1246 1351
1246 1359
1246 1361
1246 1367
1246 1370
1246 1383
1246 1393
1247 1262
1247 1263
1247 1269
1247 1279
1247 1284
1247 1296
1247 1322
1247 1329
1247 1334
1247 1352
1247 1376
1247 1380
1247 1388
1247 1392
1248 1265
1248 1290
1248 1319
1248 1326
1248 1332
1248 1341
1248 1343
1248 1344
1248 1350
1248 1355
1248 1356
1248 1364
1248 1382
1248 1386
1249 1250
1249 1253
1249 1262
1249 1265
1249 1271
1249 1313
1249 1326
1249 1329
1249 1336
1249 1339
1249 1349
1249 1356
1249 1365
1249 1375
1249 1378
1249 1386
1250 1251
1250 1264
1250 1268
1250 1282
1250 1292
1250 1295
1250 1300
1250 1303
1250 1307
1250 1312
1250 1318
1250 1325
1250 1348
1250 1384
1250 1394
1251 1258
1251 1282
1251 1284
1251 1286
1251 1293
1251 1302
1251 1304
1251 1312
1251 1315
1251 1317
1251 1331
1251 1342
1251 1354
1251 1368
1251 1373
1251 1374
1251 1375
1251 1383
1251 1398
1251 1686
1252 1257
1252 1276
1252 1279
1252 1281
1252 1298
1252 1332
1252 1349
1252 1350
1252 1357
1252 1362
1252 1363
1252 1365
1252 1382
1252 1398
1253 1271
1253 1274
1253 1290
1253 1297
1253 1312
1253 1328
1253 1331
1253 1350
1253 1366
1253 1391
1253 1396
1254 1263
1254 1276
1254 1295
1254 1311
1254 1322
1254 1330
1254 1334
1254 1341
1254 1365
1254 1371
1254 1384
1254 1390
1254 1394
1254 1397
1254 1399
1255 1258
1255 1272
1255 1280
1255 1291
1255 1295
1255 1298
1255 1308
1255 1317
1255 1327
1255 1334
1255 1341
1255 1344
1255 1346
1255 1355
1255 1358
1255 1359
1255 1366
1255 1370
1255 1382
1255 1385
1255 1389
1256 1298
1256 1304
1256 1308
1256 1312
1256 1320
1256 1321
1256 1322
1256 1324
1256 1345
1256 1363
1256 1366
1256 1378
1256 1386
1256 1390
1257 1263
1257 1268
1257 1278
1257 1279
1257 1305
1257 1309
1257 1313
1257 1315
1257 1319
1257 1328
1257 1336
1257 1343
1257 1351
1257 1353
1257 1355
1257 1373
1257 1377
1257 1379
1257 1385
1257 1390
1257 1392
1257 1397
1258 1260
1258 1270
1258 1281
1258 1302
1258 1347
1258 1363
1258 1379
1258 1392
1259 1275
1259 1291
1259 1297
1259 1310
1259 1325
1259 1332
1259 1335
1259 1339
1259 1340
1259 1354
1259 1366
1259 1367
1259 1383
1259 1384
1259 1392
1259 1398
1259 1652
1260 1268
1260 1270
1260 1275
1260 1282
1260 1294
1260 1295
1260 1301
1260 1314
1260 1333
1260 1337
1260 1356
1260 1357
1260 1358
1260 1381
1260 1388
1260 1394
1260 1395
1261 1266
1261 1292
1261 1293
1261 1300
1261 1325
1261 1327
1261 1339
1261 1344
1261 1346
1261 1359
1261 1366
1261 1375
1261 1391
1261 1393
1261 1396
1262 1264
1262 1270
1262 1277
1262 1280
1262 1282
1262 1287
1262 1293
1262 1298
1262 1300
1262 1304
1262 1315
1262 1317
1262 1319
1262 1326
1262 1328
1262 1357
1262 1361
1262 1365
1262 1376
1262 1389
1263 1267
1263 1279
1263 1285
1263 1294
1263 1319
1263 1327
1263 1366
1263 1397
1264 1279
1264 1282
1264 1296
1264 1304
1264 1313
1264 1315
1264 1324
1264 1326
1264 1334
1264 1336
1264 1338
1264 1342
1264 1349
1264 1356
1264 1369
1264 1383
1264 1384
1264 1392
1265 1267
1265 1270
1265 1286
1265 1296
1265 1302
1265 1326
1265 1342
1265 1352
1265 1364
1265 1376
1265 1381
1265 1383
1265 1394
1265 1396
1266 1278
1266 1312
1266 1318
1266 1322
1266 1324
1266 1342
1266 1367
1266 1368
1266 1389
1267 1284
1267 1285
1267 1290
1267 1297
1267 1306
1267 1314
1267 1325
1267 1331
1267 1335
1267 1337
1267 1343
1267 1347
1267 1359
1267 1377
1267 1379
1267 1392
1268 1269
1268 1275
1268 1284
1268 1290
1268 1304
1268 1308
1268 1321
1268 1335
1268 1349
1268 1351
1268 1360
1268 1365
1268 1398
1269 1283
1269 1289
1269 1304
1269 1310
1269 1335
1269 1336
1269 1342
1269 1348
1269 1360
1269 1385
1269 1390
1269 1398
1270 1273
1270 1274
1270 1290
1270 1312
1270 1350
1270 1377
1270 1382
1270 1391
1270 1398
1271 1277
1271 1289
1271 1303
1271 1305
1271 1308
1271 1315
1271 1328
1271 1336
1271 1348
1271 1358
1271 1367
1271 1373
1271 1384
1272 1274
1272 1280
1272 1281
1272 1292
1272 1294
1272 1299
1272 1313
1272 1318
1272 1320
1272 1332
1272 1339
1272 1342
1272 1362
1272 1368
1272 1372
1272 1377
1272 1383
1273 1275
1273 1278
1273 1314
1273 1317
1273 1318
1273 1326
1273 1332
1273 1333
1273 1334
1273 1350
1273 1361
1273 1383
1274 1285
1274 1287
1274 1321
1274 1322
1274 1349
1274 1351
1274 1353
1274 1367
1274 1376
1275 1277
1275 1282
1275 1309
1275 1315
1275 1317
1275 1324
1275 1338
1275 1347
1275 1357
1275 1361
1275 1363
1275 1374
1275 1387
1275 1394
1276 1279
1276 1296
1276 1302
1276 1306
1276 1328
1276 1338
1276 1340
1276 1349
1276 1353
1276 1355
1276 1381
1276 1390
1277 1282
1277 1283
1277 1300
1277 1319
1277 1321
1277 1338
1277 1344
1277 1351
1277 1367
1277 1393
1278 1282
1278 1283
1278 1296
1278 1302
1278 1305
1278 1313
1278 1317
1278 1327
1278 1329
1278 1339
1278 1346
1278 1352
1278 1357
1278 1358
1278 1366
1278 1367
1278 1368
1278 1371
1278 1376
1278 1387
1278 1395
1279 1297
1279 1301
1279 1311
1279 1315
1279 1329
1279 1341
1279 1357
1279 1388
1280 1305
1280 1314
1280 1316
1280 1328
1280 1336
1280 1338
1280 1342
1280 1358
1280 1359
1280 1368
1280 1369
1280 1376
1280 1383
1280 1394
1280 1396
1281 1287
1281 1299
1281 1306
1281 1308
1281 1324
1281 1329
1281 1342
1281 1345
1281 1348
1281 1350
1281 1356
1281 1358
1281 1364
1281 1368
1281 1369
1281 1377
1281 1386
1281 1399
1282 1284
1282 1291
1282 1295
1282 1297
1282 1303
1282 1308
1282 1333
1282 1342
1282 1346
1282 1349
1282 1366
1282 1398
1283 1286
1283 1301
1283 1310
1283 1322
1283 1324
1283 1341
1283 1361
1283 1372
1283 1397
1284 1295
1284 1320
1284 1336
1284 1344
1284 1345
1284 1355
1284 1370
1284 1399
1285 1294
1285 1312
1285 1330
1285 1345
1285 1350
1285 1363
1285 1369
1285 1372
1285 1388
1286 1301
1286 1308
1286 1328
1286 1332
1286 1339
1286 1356
1286 1373
1286 1375
1286 1393
1287 1289
1287 1300
1287 1316
1287 1317
1287 1323
1287 1343
1287 1383
1287 1387
1287 1396
1288 1301
1288 1306
1288 1313
1288 1322
1288 1325
1288 1331
1288 1334
1288 1342
1288 1355
1288 1357
1288 1362
1288 1364
1288 1383
1288 1393
1288 1399
1289 1304
1289 1332
1289 1338
1289 1354
1289 1362
1289 1399
1290 1293
1290 1294
1290 1312
1290 1313
1290 1349
1290 1352
1290 1356
1290 1365
1290 1374
1290 1377
1290 1378
1290 1384
1290 1387
1290 1396
1290 1398
1291 1300
1291 1311
1291 1319
1291 1334
1291 1336
1291 1371
1291 1376
1292 1296
1292 1310
1292 1312
1292 1313
1292 1322
1292 1338
1292 1350
1292 1358
1292 1359
1292 1368
1292 1374
1292 1380
1292 1393
1293 1294
1293 1317
1293 1326
1293 1336
1293 1343
1293 1347
1293 1350
1293 1357
1293 1362
1293 1378
1293 1386
1294 1304
1294 1308
1294 1310
1294 1319
1294 1334
1294 1346
1294 1362
1294 1376
1294 1381
1294 1395
1295 1302
1295 1316
1295 1324
1295 1327
1295 1329
1295 1338
1295 1343
1295 1345
1295 1348
1295 1363
1295 1370
1295 1379
1296 1312
1296 1319
1296 1330
1296 1344
1296 1346
1296 1347
1296 1373
1296 1375
1296 1377
1297 1305
1297 1317
1297 1340
1297 1353
1297 1354
1297 1363
1297 1370
1297 1390
1298 1299
1298 1357
1298 1360
1298 1362
1298 1368
1298 1389
1298 1393
1299 1304
1299 1319
1299 1320
1299 1334
1299 1336
1299 1359
1299 1374
1299 1375
1299 1386
1300 1311
1300 1315
1300 1316
1300 1329
1300 1350
1300 1354
1300 1357
1300 1364
1300 1366
1300 1376
1300 1378
1300 1383
1300 1386
1300 1398
1301 1309
1301 1311
1301 1315
1301 1339
1301 1348
1301 1355
1301 1358
1301 1371
1301 1381
1301 1385
1301 1399
1302 1304
1302 1306
1302 1312
1302 1328
1302 1338
1302 1355
1302 1371
1302 1377
1302 1385
1302 1387
1303 1318
1303 1321
1303 1323
1303 1340
1303 1346
1303 1369
1303 1376
1304 1316
1304 1317
1304 1320
1304 1325
1304 1334
1304 1336
1304 1344
1304 1360
1304 1367
1304 1379
1304 1381
1304 1386
1304 1394
1304 1397
1305 1306
1305 1308
1305 1321
1305 1331
1305 1344
1305 1356
1305 1367
1305 1384
1305 1392
1306 1308
1306 1315
1306 1328
1306 1331
1306 1333
1306 1335
1306 1337
1306 1349
1306 1352
1306 1385
1306 1398
1307 1326
1307 1329
1307 1357
1307 1359
1307 1360
1307 1363
1307 1367
1307 1376
1307 1377
1307 1389
1308 1323
1308 1331
1308 1368
1308 1378
1308 1383
1308 1384
1309 1319
1309 1330
1309 1337
1309 1339
1309 1351
1309 1359
1309 1363
1310 1326
1310 1330
1310 1334
1310 1355
1310 1358
1310 1366
1310 1367
1310 1372
1310 1376
1310 1381
1311 1315
1311 1319
1311 1330
1311 1333
1311 1341
1311 1343
1311 1348
1311 1361
1311 1367
1311 1381
1312 1344
1312 1347
1312 1350
1312 1352
1312 1362
1312 1365
1312 1368
1312 1371
1312 1382
1312 1396
1313 1324
1313 1334
1313 1337
1313 1346
1313 1361
1313 1364
1313 1374
1313 1380
1313 1386
1313 1395
1314 1326
1314 1333
1314 1342
1314 1350
1314 1359
1314 1370
1315 1319
1315 1324
1315 1331
1315 1335
1315 1340
1315 1341
1315 1342
1315 1355
1315 1362
1315 1392
1315 1393
1316 1338
1316 1341
1316 1357
1316 1358
1316 1363
1316 1366
1316 1384
1316 1392
1316 1395
1317 1333
1317 1355
1317 1362
1317 1366
1317 1381
1317 1382
1317 1389
1318 1321
1318 1334
1318 1344
1318 1363
1318 1381
1318 1385
1319 1336
1319 1359
1319 1362
1319 1366
1319 1372
1319 1385
1320 1330
1320 1340
1320 1347
1320 1349
1320 1396
1320 1397
1321 1325
1321 1357
1321 1370
1321 1386
1322 1331
1322 1336
1322 1340
1322 1342
1322 1343
1322 1366
1322 1375
1322 1376
1322 1390
1322 1392
1322 1394
1323 1324
1323 1327
1323 1333
1323 1335
1323 1344
1323 1352
1323 1357
1323 1358
1323 1378
1323 1385
1323 1393
1323 1398
1324 1346
1324 1368
1324 1369
1324 1379
1324 1384
1324 1388
1325 1331
1325 1336
1325 1349
1325 1350
1325 1364
1325 1382
1325 1388
1326 1332
1326 1333
1326 1336
1326 1349
1326 1351
1326 1363
1326 1375
1326 1388
1326 1396
1327 1330
1327 1344
1327 1346
1327 1354
1327 1364
1327 1365
1327 1375
1327 1380
1327 1381
1327 1390
1327 1394
1328 1334
1328 1340
1328 1344
1328 1361
1328 1372
1328 1378
1328 1379
1328 1380
1328 1397
1329 1330
1329 1351
1329 1363
1329 1371
1330 1353
1330 1374
1330 1383
1330 1384
1330 1386
1331 1350
1331 1362
1331 1379
1331 1389
1332 1348
1332 1353
1332 1355
1332 1359
1332 1369
1332 1372
1333 1341
1333 1370
1333 1375
1333 1390
1333 1396
1334 1337
1334 1341
1334 1344
1334 1348
1334 1351
1334 1385
1334 1391
1334 1398
1335 1342
1335 1344
1335 1347
1335 1364
1335 1366
1335 1399
1336 1339
1336 1340
1336 1354
1336 1362
1336 1365
1336 1367
1336 1368
1337 1356
1337 1381
1338 1345
1338 1346
1338 1370
1338 1371
1338 1382
1338 1389
1339 1372
1339 1384
1339 1397
1340 1344
1340 1348
1340 1361
1340 1383
1340 1396
1341 1368
1341 1371
1341 1379
1341 1381
1341 1391
1341 1393
1341 1397
1342 1344
1342 1348
1342 1350
1343 1368
1343 1371
1343 1389
1343 1396
1344 1349
1344 1354
1344 1361
1344 1371
1344 1373
1344 1383
1344 1384
1344 1394
1345 1349
1345 1358
1345 1362
1345 1382
1345 1383
1345 1393
1346 1350
1346 1368
1346 1375
1346 1377
1346 1378
1347 1351
1347 1356
1347 1364
1347 1367
1347 1389
1348 1358
1348 1364
1348 1376
1348 1389
1348 1395
1349 1351
1349 1357
1349 1361
1349 1370
1349 1386
1349 1390
1350 1385
1350 1391
1350 1393
1351 1354
1351 1357
1351 1367
1351 1379
1351 1385
1351 1390
1351 1398
1352 1366
1352 1379
1352 1381
1352 1382
1352 1389
1352 1393
1353 1385
1353 1396
1354 1360
1354 1367
1354 1368
1354 1379
1354 1399
1355 1367
1355 1381
1355 1393
1356 1367
1356 1368
1356 1370
1356 1371
1356 1373
1356 1377
1356 1392
1357 1358
1357 1376
1357 1380
1357 1382
1357 1386
1357 1387
1357 1388
1357 1398
1358 1366
1358 1367
1358 1376
1358 1386
1358 1390
1358 1391
1358 1398
1359 1362
1359 1363
1360 1364
1360 1395
1360 1399
1361 1365
1361 1367
1361 1377
1361 1388
1361 1748
1362 1364
1362 1386
1363 1389
1364 1374
1365 1380
1365 1394
1365 1396
1366 1372
1366 1376
1366 1379
1366 1385
1366 1388
1367 1374
1367 1387
1368 1380
1369 1373
1369 1375
1369 1382
1369 1384
1369 1392
1370 1379
1370 1389
1370 1397
1371 1379
1372 1395
1373 1378
1374 1377
1374 1396
1375 1384
1375 1387
1377 1383
1377 1397
1377 1398
1378 1390
1378 1392
1378 1393
1380 1385
1380 1397
1382 1384
1382 1392
1383 1398
1384 1386
1384 1389
1385 1388
1385 1393
1385 1395
1385 1399
1386 1392
1388 1399
1388 1637
1389 1391
1390 1393
1390 1397
1390 1398
1390 1399
1391 1398
1394 1397
1400 1429
1400 1440
1400 1462
1400 1492
1400 1497
1400 1501
1400 1506
1400 1521
1400 1522
1400 1528
1400 1534
1400 1545
1400 1549
1400 1553
1400 1555
1400 1556
1400 1560
1400 1583
1401 1406
1401 1441
1401 1443
1401 1451
1401 1470
1401 1477
1401 1493
1401 1518
1401 1536
1401 1537
1401 1545
1401 1555
1401 1568
1401 1573
1401 1577
1401 1590
1401 1597
1402 1403
1402 1419
1402 1443
1402 1446
1402 1466
1402 1476
1402 1494
1402 1506
1402 1524
1402 1534
1402 1538
1402 1559
1402 1564
1402 1573
1402 1576
1402 1579
1402 1588
1403 1433
1403 1439
1403 1443
1403 1445
1403 1446
1403 1452
1403 1460
1403 1462
1403 1464
1403 1467
1403 1469
1403 1481
1403 1490
1403 1499
1403 1511
1403 1516
1403 1518
1403 1521
1403 1528
1403 1538
1403 1539
1403 1547
1403 1552
1403 1557
1403 1566
1403 1571
1403 1573
1403 1579
1403 1592
1404 1405
1404 1406
1404 1408
1404 1409
1404 1416
1404 1419
1404 1421
1404 1433
1404 1447
1404 1462
1404 1472
1404 1495
1404 1507
1404 1511
1404 1516
1404 1540
1404 1542
1404 1546
1404 1547
1404 1549
1404 1551
1404 1552
1404 1558
1404 1563
1404 1569
1404 1570
1404 1578
1404 1599
1405 1411
1405 1432
1405 1434
1405 1438
1405 1443
1405 1445
1405 1457
1405 1468
1405 1470
1405 1473
1405 1476
1405 1479
1405 1497
1405 1500
1405 1501
1405 1505
1405 1520
1405 1523
1405 1550
1405 1560
1405 1561
1405 1583
1406 1432
1406 1447
1406 1448
1406 1472
1406 1476
1406 1497
1406 1498
1406 1505
1406 1510
1406 1514
1406 1530
1406 1537
1406 1551
1406 1556
1406 1563
1406 1565
1406 1573
1406 1580
1406 1585
1407 1413
1407 1415
1407 1435
1407 1436
1407 1455
1407 1459
1407 1464
1407 1466
1407 1472
1407 1494
1407 1509
1407 1518
1407 1535
1407 1566
1407 1590
1407 1596
1408 1418
1408 1429
1408 1430
1408 1437
1408 1439
1408 1448
1408 1465
1408 1488
1408 1492
1408 1527
1408 1554
1408 1558
1408 1566
1409 1410
1409 1416
1409 1432
1409 1439
1409 1449
1409 1453
1409 1454
1409 1494
1409 1500
1409 1504
1409 1505
1409 1506
1409 1512
1409 1513
1409 1521
1409 1551
1409 1552
1409 1557
1409 1562
1409 1574
1410 1418
1410 1425
1410 1429
1410 1465
1410 1471
1410 1483
1410 1493
1410 1496
1410 1502
1410 1546
1410 1581
1410 1589
1410 1594
1411 1415
1411 1417
1411 1425
1411 1428
1411 1439
1411 1447
1411 1459
1411 1467
1411 1470
1411 1476
1411 1518
1411 1519
1411 1560
1411 1565
1411 1573
1411 1583
1411 1587
1411 1590
1411 1599
1412 1419
1412 1426
1412 1447
1412 1466
1412 1481
1412 1504
1412 1513
1412 1515
1412 1532
1412 1533
1412 1548
1412 1564
1412 1568
1412 1582
1412 1587
1413 1424
1413 1434
1413 1436
1413 1448
1413 1460
1413 1468
1413 1487
1413 1491
1413 1495
1413 1513
1413 1522
1413 1527
1413 1528
1413 1551
1413 1553
1413 1557
1413 1579
1413 1586
1413 1588
1413 1593
1414 1429
1414 1432
1414 1442
1414 1443
1414 1447
1414 1449
1414 1459
1414 1463
1414 1470
1414 1478
1414 1486
1414 1501
1414 1511
1414 1517
1414 1525
1414 1526
1414 1545
1414 1550
1414 1559
1414 1569
1414 1582
1414 1586
1414 1589
1414 1591
1415 1422
1415 1423
1415 1429
1415 1436
1415 1442
1415 1464
1415 1477
1415 1492
1415 1494
1415 1507
1415 1539
1415 1542
1415 1552
1415 1567
1415 1579
1415 1592
1415 1595
1416 1427
1416 1433
1416 1438
1416 1454
1416 1456
1416 1463
1416 1469
1416 1482
1416 1488
1416 1497
1416 1503
1416 1507
1416 1515
1416 1518
1416 1521
1416 1540
1416 1551
1416 1552
1416 1553
1416 1560
1416 1564
1416 1567
1416 1583
1416 1596
1416 1599
1417 1435
1417 1441
1417 1445
1417 1448
1417 1456
1417 1457
1417 1495
1417 1510
1417 1521
1417 1530
1417 1533
1417 1541
1417 1543
1417 1576
1417 1584
1417 1587
1417 1595
1417 1599
1418 1426
1418 1429
1418 1440
1418 1443
1418 1454
1418 1457
1418 1461
1418 1466
1418 1475
1418 1479
1418 1485
1418 1490
1418 1505
1418 1541
1418 1551
1418 1553
1418 1556
1418 1557
1418 1562
1418 1563
1418 1573
1418 1578
1419 1431
1419 1436
1419 1446
1419 1451
1419 1452
1419 1456
1419 1459
1419 1462
1419 1472
1419 1480
1419 1496
1419 1497
1419 1515
1419 1538
1419 1545
1419 1546
1419 1551
1419 1555
1419 1567
1419 1571
1419 1577
1420 1449
1420 1451
1420 1461
1420 1480
1420 1491
1420 1500
1420 1502
1420 1505
1420 1507
1420 1508
1420 1522
1420 1528
1420 1530
1420 1531
1420 1532
1420 1534
1420 1538
1420 1553
1420 1556
1420 1566
1420 1568
1420 1579
1420 1584
1420 1589
1420 1590
1420 1597
1421 1423
1421 1428
1421 1432
1421 1452
1421 1480
1421 1498
1421 1503
1421 1513
1421 1518
1421 1527
1421 1540
1421 1553
1421 1555
1421 1562
1421 1563
1421 1565
1421 1594
1422 1426
1422 1431
1422 1447
1422 1450
1422 1460
1422 1472
1422 1480
1422 1482
1422 1486
1422 1489
1422 1494
1422 1501
1422 1513
1422 1541
1422 1553
1422 1559
1422 1564
1422 1570
1422 1594
1423 1442
1423 1458
1423 1460
1423 1493
1423 1499
1423 1500
1423 1525
1423 1534
1423 1537
1423 1538
1423 1540
1423 1556
1423 1575
1423 1579
1423 1593
1424 1431
1424 1441
1424 1449
1424 1460
1424 1471
1424 1476
1424 1490
1424 1495
1424 1497
1424 1505
1424 1514
1424 1520
1424 1524
1424 1557
1424 1567
1424 1572
1424 1592
1424 1596
1425 1432
1425 1461
1425 1466
1425 1493
1425 1497
1425 1525
1425 1540
1425 1544
1425 1550
1425 1554
1425 1573
1426 1438
1426 1439
1426 1446
1426 1452
1426 1466
1426 1475
1426 1481
1426 1482
1426 1492
1426 1495
1426 1498
1426 1503
1426 1511
1426 1514
1426 1534
1426 1543
1426 1547
1426 1548
1426 1550
1426 1563
1426 1571
1426 1584
1427 1435
1427 1459
1427 1470
1427 1471
1427 1480
1427 1488
1427 1515
1427 1522
1427 1529
1427 1548
1427 1569
1427 1585
1428 1470
1428 1474
1428 1500
1428 1508
1428 1530
1428 1538
1428 1541
1428 1543
1428 1544
1428 1557
1428 1559
1428 1560
1428 1561
1428 1575
1428 1577
1428 1583
1428 1595
1428 1599
1429 1432
1429 1435
1429 1443
1429 1457
1429 1462
1429 1463
1429 1487
1429 1495
1429 1518
1429 1573
1429 1594
1430 1432
1430 1439
1430 1441
1430 1442
1430 1449
1430 1477
1430 1480
1430 1496
1430 1513
1430 1520
1430 1522
1430 1564
1430 1571
1431 1443
1431 1448
1431 1454
1431 1457
1431 1461
1431 1465
1431 1467
1431 1508
1431 1516
1431 1522
1431 1524
1431 1531
1431 1539
1431 1566
1431 1570
1431 1587
1431 1591
1431 1593
1432 1445
1432 1447
1432 1452
1432 1454
1432 1467
1432 1471
1432 1475
1432 1512
1432 1516
1432 1519
1432 1536
1432 1543
1432 1546
1432 1559
1432 1576
1432 1593
1433 1437
1433 1438
1433 1446
1433 1448
1433 1450
1433 1452
1433 1453
1433 1461
1433 1463
1433 1465
1433 1468
1433 1470
1433 1490
1433 1500
1433 1510
1433 1512
1433 1513
1433 1517
1433 1524
1433 1530
1433 1532
1433 1533
1433 1535
1433 1549
1433 1559
1433 1568
1433 1574
1433 1583
1433 1585
1433 1595
1433 1598
1433 1599
1434 1450
1434 1495
1434 1523
1434 1534
1434 1547
1434 1553
1434 1586
1434 1590
1435 1441
1435 1450
1435 1455
1435 1467
1435 1490
1435 1493
1435 1495
1435 1503
1435 1517
1435 1523
1435 1531
1435 1536
1435 1584
1435 1588
1436 1439
1436 1441
1436 1449
1436 1462
1436 1544
1436 1564
1436 1576
1436 1582
1436 1595
1436 1596
1437 1443
1437 1447
1437 1448
1437 1453
1437 1462
1437 1469
1437 1476
1437 1489
1437 1496
1437 1501
1437 1516
1437 1518
1437 1523
1437 1527
1437 1529
1437 1548
1437 1552
1437 1571
1437 1573
1437 1597
1438 1450
1438 1454
1438 1467
1438 1472
1438 1479
1438 1482
1438 1483
1438 1485
1438 1497
1438 1498
1438 1514
1438 1521
1438 1525
1438 1528
1438 1529
1438 1536
1438 1556
1438 1568
1438 1583
1439 1441
1439 1443
1439 1449
1439 1465
1439 1486
1439 1488
1439 1546
1439 1549
1439 1551
1439 1562
1439 1573
1439 1582
1439 1586
1439 1593
1439 1597
1440 1444
1440 1446
1440 1469
1440 1472
1440 1489
1440 1495
1440 1514
1440 1515
1440 1536
1440 1538
1440 1549
1440 1553
1440 1567
1440 1579
1440 1582
1440 1586
1441 1446
1441 1450
1441 1473
1441 1493
1441 1501
1441 1508
1441 1509
1441 1510
1441 1512
1441 1516
1441 1527
1441 1533
1441 1548
1441 1558
1441 1560
1441 1564
1441 1573
1441 1574
1441 1594
1442 1448
1442 1461
1442 1474
1442 1487
1442 1488
1442 1489
1442 1490
1442 1528
1442 1548
1442 1552
1442 1558
1442 1567
1442 1569
1442 1580
1442 1588
1442 1595
1443 1458
1443 1467
1443 1468
1443 1494
1443 1502
1443 1507
1443 1509
1443 1526
1443 1543
1443 1548
1443 1564
1443 1566
1443 1569
1443 1571
1443 1577
1443 1595
1444 1457
1444 1458
1444 1468
1444 1469
1444 1497
1444 1505
1444 1506
1444 1515
1444 1528
1444 1546
1444 1548
1444 1558
1444 1562
1444 1564
1444 1574
1444 1575
1444 1580
1444 1589
1444 1598
1445 1448
1445 1450
1445 1493
1445 1496
1445 1500
1445 1504
1445 1507
1445 1513
1445 1516
1445 1529
1445 1534
1445 1547
1445 1553
1445 1554
1445 1592
1445 1594
1445 1597
1446 1450
1446 1459
1446 1462
1446 1473
1446 1478
1446 1480
1446 1488
1446 1505
1446 1517
1446 1553
1446 1562
1446 1563
1446 1570
1446 1592
1446 1598
1447 1461
1447 1480
1447 1484
1447 1487
1447 1496
1447 1501
1447 1503
1447 1520
1447 1553
1447 1585
1448 1455
1448 1459
1448 1470
1448 1480
1448 1483
1448 1490
1448 1494
1448 1496
1448 1504
1448 1514
1448 1529
1448 1533
1448 1536
1448 1546
1448 1549
1448 1559
1448 1582
1448 1595
1449 1464
1449 1467
1449 1484
1449 1488
1449 1491
1449 1499
1449 1501
1449 1505
1449 1511
1449 1525
1449 1532
1449 1553
1449 1560
1449 1564
1449 1571
1449 1572
1449 1576
1449 1581
1449 1586
1450 1466
1450 1467
1450 1469
1450 1486
1450 1508
1450 1509
1450 1517
1450 1544
1450 1546
1450 1550
1450 1551
1450 1567
1450 1574
1450 1590
1450 1591
1450 1592
1450 1595
1451 1458
1451 1467
1451 1472
1451 1480
1451 1485
1451 1490
1451 1496
1451 1520
1451 1532
1451 1538
1451 1540
1451 1546
1451 1551
1451 1557
1451 1573
1451 1586
1451 1588
1451 1589
1451 1591
1451 1598
1452 1463
1452 1467
1452 1479
1452 1483
1452 1493
1452 1504
1452 1518
1452 1527
1452 1534
1452 1537
1452 1549
1452 1560
1452 1581
1452 1588
1452 1598
1453 1457
1453 1466
1453 1491
1453 1495
1453 1531
1453 1534
1453 1540
1453 1553
1453 1558
1453 1562
1453 1584
1453 1594
1454 1469
1454 1510
1454 1513
1454 1520
1454 1527
1454 1539
1454 1540
1454 1544
1454 1558
1454 1561
1454 1562
1454 1563
1454 1565
1454 1575
1454 1576
1454 1594
1454 1596
1455 1464
1455 1478
1455 1489
1455 1509
1455 1511
1455 1512
1455 1545
1455 1579
1456 1479
1456 1482
1456 1486
1456 1499
1456 1501
1456 1505
1456 1506
1456 1508
1456 1517
1456 1525
1456 1536
1456 1554
1456 1564
1456 1585
1456 1590
1456 1596
1456 1597
1456 1598
1456 1599
1457 1459
1457 1460
1457 1485
1457 1512
1457 1520
1457 1529
1457 1531
1457 1558
1457 1565
1457 1572
1457 1587
1457 1588
1457 1591
1457 1598
1458 1490
1458 1512
1458 1523
1458 1526
1458 1540
1458 1543
1458 1551
1458 1559
1458 1570
1458 1579
1458 1581
1458 1586
1458 1589
1459 1470
1459 1497
1459 1509
1459 1510
1459 1513
1459 1517
1459 1527
1459 1529
1459 1531
1459 1536
1459 1547
1459 1559
1459 1563
1459 1567
1459 1570
1459 1577
1459 1580
1459 1596
1460 1473
1460 1486
1460 1491
1460 1494
1460 1497
1460 1500
1460 1504
1460 1512
1460 1515
1460 1525
1460 1529
1460 1554
1460 1562
1460 1578
1460 1599
1461 1486
1461 1487
1461 1493
1461 1520
1461 1532
1461 1539
1461 1548
1461 1554
1461 1558
1461 1564
1461 1573
1461 1579
1461 1586
1461 1592
1461 1595
1461 1596
1462 1463
1462 1467
1462 1471
1462 1491
1462 1510
1462 1518
1462 1524
1462 1559
1462 1595
1462 1599
1463 1488
1463 1490
1463 1514
1463 1517
1463 1521
1463 1522
1463 1532
1463 1549
1463 1550
1463 1589
1464 1469
1464 1471
1464 1475
1464 1476
1464 1487
1464 1491
1464 1498
1464 1501
1464 1505
1464 1517
1464 1543
1464 1564
1464 1574
1465 1467
1465 1469
1465 1480
1465 1495
1465 1497
1465 1500
1465 1502
1465 1517
1465 1523
1465 1529
1465 1575
1465 1579
1465 1592
1465 1596
1465 1662
1466 1471
1466 1473
1466 1475
1466 1481
1466 1483
1466 1484
1466 1486
1466 1492
1466 1493
1466 1494
1466 1501
1466 1508
1466 1513
1466 1517
1466 1529
1466 1533
1466 1543
1466 1547
1466 1577
1467 1480
1467 1485
1467 1486
1467 1494
1467 1498
1467 1501
1467 1519
1467 1521
1467 1527
1467 1549
1467 1551
1467 1570
1467 1587
1468 1473
1468 1476
1468 1495
1468 1504
1468 1535
1468 1542
1468 1559
1468 1560
1468 1565
1468 1571
1468 1574
1468 1587
1469 1473
1469 1496
1469 1504
1469 1508
1469 1524
1469 1529
1469 1531
1469 1536
1469 1538
1469 1557
1469 1562
1469 1581
1469 1584
1470 1483
1470 1515
1470 1525
1470 1537
1470 1541
1470 1550
1470 1552
1470 1558
1470 1566
1470 1577
1470 1584
1470 1590
1470 1597
1471 1485
1471 1488
1471 1489
1471 1500
1471 1503
1471 1505
1471 1511
1471 1512
1471 1513
1471 1527
1471 1531
1471 1549
1471 1550
1471 1566
1471 1583
1471 1584
1471 1591
1472 1474
1472 1477
1472 1492
1472 1493
1472 1500
1472 1504
1472 1505
1472 1531
1472 1543
1472 1560
1472 1568
1472 1573
1472 1582
1472 1590
1473 1484
1473 1487
1473 1492
1473 1493
1473 1525
1473 1526
1473 1532
1473 1558
1473 1575
1473 1580
1473 1581
1473 1588
1474 1484
1474 1489
1474 1495
1474 1504
1474 1508
1474 1512
1474 1542
1474 1551
1474 1568
1474 1570
1474 1588
1474 1589
1475 1479
1475 1489
1475 1503
1475 1528
1475 1535
1475 1561
1475 1562
1475 1575
1475 1576
1476 1483
1476 1490
1476 1505
1476 1528
1476 1555
1476 1572
1476 1583
1476 1589
1476 1593
1476 1597
1476 1598
1477 1525
1477 1544
1477 1549
1477 1580
1477 1597
1478 1490
1478 1499
1478 1506
1478 1512
1478 1513
1478 1521
1478 1524
1478 1531
1478 1539
1478 1541
1478 1544
1478 1557
1478 1562
1478 1570
1478 1577
1478 1582
1478 1586
1479 1492
1479 1500
1479 1503
1479 1507
1479 1526
1479 1529
1479 1548
1479 1549
1479 1570
1479 1595
1479 1598
1480 1494
1480 1507
1480 1513
1480 1521
1480 1538
1480 1555
1480 1594
1481 1491
1481 1492
1481 1497
1481 1505
1481 1521
1481 1523
1481 1524
1481 1539
1481 1553
1481 1556
1481 1562
1481 1565
1481 1590
1481 1592
1481 1596
1482 1492
1482 1507
1482 1512
1482 1521
1482 1528
1482 1531
1482 1549
1482 1557
1482 1560
1482 1562
1482 1563
1482 1565
1482 1580
1482 1594
1482 1595
1482 1715
1483 1499
1483 1500
1483 1504
1483 1506
1483 1517
1483 1521
1483 1550
1483 1555
1483 1561
1483 1573
1483 1575
1483 1576
1484 1488
1484 1496
1484 1507
1484 1510
1484 1515
1484 1517
1484 1520
1484 1539
1484 1540
1484 1545
1484 1550
1484 1553
1484 1558
1484 1569
1484 1575
1484 1592
1484 1593
1484 1598
1485 1487
1485 1497
1485 1508
1485 1509
1485 1514
1485 1536
1485 1541
1485 1547
1485 1563
1485 1575
1485 1578
1486 1511
1486 1517
1486 1520
1486 1542
1486 1565
1486 1568
1486 1574
1486 1586
1486 1592
1487 1496
1487 1497
1487 1537
1487 1545
1487 1547
1487 1549
1487 1550
1487 1553
1487 1555
1487 1558
1487 1574
1487 1582
1487 1585
1487 1586
1487 1588
1487 1590
1488 1496
1488 1511
1488 1525
1488 1526
1488 1533
1488 1536
1488 1545
1488 1548
1488 1552
1488 1566
1488 1582
1488 1583
1488 1590
1489 1497
1489 1501
1489 1521
1489 1527
1489 1547
1489 1549
1489 1558
1489 1559
1489 1564
1489 1578
1489 1587
1489 1596
1489 1597
1490 1496
1490 1498
1490 1537
1490 1542
1490 1551
1490 1580
1490 1587
1490 1597
1491 1497
1491 1519
1491 1551
1491 1554
1491 1571
1491 1573
1491 1574
1491 1584
1491 1586
1492 1493
1492 1511
1492 1545
1492 1587
1492 1595
1492 1597
1492 1598
1493 1495
1493 1498
1493 1516
1493 1520
1493 1529
1493 1533
1493 1536
1493 1551
1493 1554
1493 1579
1493 1596
1493 1598
1494 1500
1494 1512
1494 1539
1494 1542
1494 1547
1494 1568
1495 1502
1495 1510
1495 1515
1495 1530
1495 1535
1495 1536
1495 1544
1495 1565
1495 1579
1495 1593
1495 1596
1495 1599
1496 1497
1496 1499
1496 1507
1496 1515
1496 1526
1496 1535
1496 1539
1496 1562
1496 1571
1496 1580
1497 1508
1497 1523
1497 1536
1497 1542
1497 1556
1498 1517
1498 1518
1498 1536
1498 1540
1498 1542
1498 1576
1498 1590
1498 1594
1499 1508
1499 1509
1499 1530
1499 1533
1499 1538
1499 1553
1499 1555
1499 1567
1499 1568
1499 1580
1499 1587
1499 1590
1499 1595
1499 1751
1500 1507
1500 1523
1500 1525
1500 1544
1500 1549
1500 1552
1500 1557
1500 1564
1500 1569
1500 1570
1500 1575
1500 1592
1500 1593
1500 1597
1501 1515
1501 1519
1501 1527
1501 1533
1501 1539
1501 1541
1501 1543
1501 1573
1501 1577
1501 1579
1501 1589
1501 1597
1502 1503
1502 1536
1502 1587
1502 1589
1502 1592
1503 1517
1503 1528
1503 1552
1503 1557
1503 1565
1503 1585
1504 1507
1504 1524
1504 1526
1504 1544
1504 1545
1504 1555
1504 1559
1504 1571
1504 1576
1504 1582
1504 1590
1504 1597
1505 1506
1505 1515
1505 1524
1505 1547
1505 1567
1505 1572
1506 1526
1506 1532
1506 1533
1506 1541
1506 1548
1506 1571
1506 1580
1506 1585
1506 1591
1507 1545
1507 1555
1507 1577
1507 1585
1508 1512
1508 1534
1508 1545
1508 1549
1508 1555
1508 1578
1508 1592
1508 1594
1508 1597
1509 1519
1509 1523
1509 1529
1509 1552
1509 1553
1509 1569
1509 1579
1509 1582
1509 1593
1510 1532
1510 1536
1510 1539
1510 1556
1510 1557
1510 1561
1510 1571
1510 1578
1511 1518
1511 1521
1511 1534
1511 1559
1511 1574
1511 1588
1511 1591
1512 1523
1512 1534
1512 1539
1512 1543
1512 1552
1512 1557
1512 1558
1512 1559
1512 1565
1512 1567
1512 1579
1512 1580
1512 1585
1512 1586
1513 1550
1513 1556
1513 1572
1513 1576
1513 1578
1513 1584
1514 1527
1514 1529
1514 1531
1514 1533
1514 1549
1514 1550
1514 1555
1514 1576
1515 1535
1515 1539
1515 1541
1515 1553
1515 1558
1515 1564
1515 1580
1515 1585
1515 1725
1516 1523
1516 1524
1516 1534
1516 1535
1516 1537
1516 1551
1516 1568
1516 1573
1516 1580
1517 1524
1517 1529
1517 1556
1517 1581
1517 1583
1517 1620
1518 1523
1518 1529
1518 1534
1518 1540
1518 1548
1518 1549
1518 1563
1518 1567
1518 1575
1518 1579
1518 1590
1518 1594
1519 1520
1519 1534
1519 1552
1519 1583
1519 1585
1519 1595
1520 1567
1521 1534
1521 1542
1521 1544
1521 1550
1521 1555
1521 1563
1521 1572
1521 1579
1521 1584
1522 1523
1522 1527
1522 1528
1522 1545
1522 1564
1522 1570
1522 1584
1522 1589
1523 1533
1523 1549
1523 1570
1523 1571
1523 1574
1523 1577
1523 1581
1523 1584
1523 1586
1523 1595
1523 1599
1524 1527
1524 1529
1524 1532
1524 1534
1524 1538
1524 1563
1524 1566
1524 1567
1524 1568
1524 1569
1524 1584
1524 1597
1525 1534
1525 1549
1525 1562
1525 1571
1525 1575
1525 1581
1526 1536
1526 1540
1526 1544
1526 1554
1526 1558
1526 1561
1526 1574
1526 1575
1526 1577
1526 1589
1527 1530
1527 1531
1527 1544
1527 1564
1527 1579
1527 1591
1528 1535
1528 1538
1528 1564
1528 1574
1529 1539
1529 1566
1529 1576
1529 1584
1529 1593
1530 1536
1530 1550
1530 1554
1530 1563
1530 1574
1530 1588
1531 1533
1531 1536
1531 1541
1531 1548
1531 1564
1531 1565
1531 1573
1531 1575
1531 1581
1532 1536
1532 1567
1532 1570
1532 1581
1532 1583
1533 1535
1533 1536
1533 1547
1533 1548
1533 1558
1533 1579
1533 1584
1534 1538
1534 1549
1534 1550
1534 1551
1534 1557
1534 1559
1534 1562
1534 1563
1534 1585
1534 1586
1534 1587
1534 1596
1534 1765
1535 1538
1535 1563
1535 1581
1535 1583
1536 1542
1536 1554
1536 1556
1536 1562
1536 1564
1536 1594
1537 1542
1537 1553
1537 1561
1537 1578
1537 1580
1537 1596
1538 1539
1538 1540
1538 1550
1538 1560
1538 1562
1538 1596
1539 1557
1539 1562
1539 1573
1539 1579
1539 1585
1539 1587
1539 1594
1540 1548
1540 1551
1540 1582
1540 1593
1540 1595
1541 1546
1541 1548
1541 1564
1541 1580
1541 1588
1542 1549
1542 1561
1542 1563
1542 1564
1542 1569
1542 1584
1543 1544
1543 1547
1543 1550
1543 1555
1543 1570
1543 1575
1543 1578
1543 1592
1543 1597
1543 1598
1544 1556
1544 1569
1545 1555
1545 1559
1545 1589
1545 1598
1546 1556
1546 1562
1546 1563
1546 1565
1546 1575
1546 1586
1546 1592
1546 1593
1546 1595
1547 1568
1547 1569
1547 1583
1547 1586
1547 1589
1547 1594
1548 1568
1548 1580
1549 1560
1549 1563
1549 1564
1549 1576
1549 1593
1550 1565
1550 1576
1550 1585
1551 1576
1552 1555
1552 1561
1552 1562
1552 1567
1552 1585
1553 1575
1553 1586
1553 1590
1553 1595
1553 1597
1554 1558
1554 1586
1554 1588
1554 1590
1554 1594
1555 1560
1555 1562
1555 1578
1555 1581
1555 1587
1555 1594
1555 1598
1556 1568
1556 1570
1556 1571
1556 1578
1556 1589
1556 1617
1557 1562
1557 1579
1557 1582
1557 1589
1558 1571
1558 1574
1558 1585
1558 1587
1558 1588
1558 1593
1559 1562
1559 1568
1560 1566
1560 1580
1560 1583
1561 1591
1562 1565
1562 1569
1562 1593
1563 1582
1563 1596
1564 1576
1564 1577
1565 1576
1566 1576
1566 1584
1566 1585
1566 1592
1566 1593
1567 1573
1567 1581
1567 1586
1568 1570
1568 1572
1568 1573
1568 1586
1568 1587
1568 1588
1569 1585
1569 1590
1570 1583
1570 1584
1570 1969
1571 1599
1572 1573
1572 1578
1573 1577
1573 1579
1573 1582
1573 1589
1575 1579
1575 1583
1576 1590
1576 1591
1576 1595
1577 1595
1577 1599
1578 1585
1578 1590
1578 1599
1579 1591
1579 1593
1580 1582
1580 1586
1580 1595
1580 1596
1582 1583
1582 1592
1582 1594
1583 1585
1583 1586
1584 1589
1584 1590
1585 1599
1588 1593
1590 1591
1590 1598
1593 1597
1594 1595
1596 1598
1597 1689
1600 1611
1600 1616
1600 1620
1600 1621
1600 1632
1600 1633
1600 1641
1600 1663
1600 1682
1600 1694
1600 1696
1600 1699
1600 1727
1600 1729
1600 1737
1600 1766
1600 1777
1600 1788
1600 1792
1600 1796
1601 1648
1601 1659
1601 1688
1601 1700
1601 1702
1601 1714
1601 1727
1601 1730
1601 1745
1601 1760
1601 1773
1601 1777
1601 1787
1601 1798
1602 1609
1602 1612
1602 1628
1602 1631
1602 1646
1602 1648
1602 1649
1602 1650
1602 1666
1602 1683
1602 1695
1602 1701
1602 1713
1602 1714
1602 1724
1602 1729
1602 1731
1602 1758
1602 1761
1602 1781
1602 1784
1603 1611
1603 1617
1603 1618
1603 1634
1603 1656
1603 1678
1603 1681
1603 1697
1603 1702
1603 1707
1603 1708
1603 1733
1603 1748
1603 1751
1603 1765
1603 1766
1603 1779
1604 1609
1604 1621
1604 1632
1604 1633
1604 1634
1604 1636
1604 1665
1604 1678
1604 1691
1604 1693
1604 1704
1604 1712
1604 1717
1604 1725
1604 1730
1604 1756
1604 1760
1604 1761
1604 1769
1604 1772
1604 1789
1604 1798
1605 1612
1605 1617
1605 1641
1605 1645
1605 1655
1605 1659
1605 1671
1605 1678
1605 1693
1605 1721
1605 1722
1605 1723
1605 1737
1605 1756
1605 1759
1605 1769
1605 1784
1605 1785
1605 1791
1605 1792
1606 1615
1606 1626
1606 1628
1606 1642
1606 1645
1606 1658
1606 1660
1606 1663
1606 1671
1606 1683
1606 1686
1606 1718
1606 1740
1606 1744
1606 1759
1606 1762
1606 1770
1606 1771
1606 1774
1606 1787
1606 1794
1606 1796
1607 1613
1607 1638
1607 1650
1607 1676
1607 1677
1607 1680
1607 1697
1607 1700
1607 1706
1607 1716
1607 1717
1607 1728
1607 1736
1607 1749
1607 1757
1607 1765
1607 1776
1608 1634
1608 1636
1608 1642
1608 1649
1608 1658
1608 1671
1608 1686
1608 1707
1608 1712
1608 1723
1608 1732
1608 1733
1608 1734
1608 1775
1608 1795
1609 1617
1609 1622
1609 1645
1609 1667
1609 1672
1609 1673
1609 1680
1609 1705
1609 1724
1609 1725
1609 1738
1609 1760
1609 1775
1609 1784
1609 1794
1610 1611
1610 1637
1610 1644
1610 1656
1610 1665
1610 1675
1610 1680
1610 1688
1610 1702
1610 1724
1610 1730
1610 1735
1610 1742
1610 1745
1610 1746
1610 1753
1610 1757
1610 1761
1610 1780
1610 1794
1611 1619
1611 1622
1611 1641
1611 1647
1611 1648
1611 1649
1611 1653
1611 1663
1611 1669
1611 1674
1611 1682
1611 1688
1611 1691
1611 1697
1611 1718
1611 1741
1611 1760
1611 1781
1612 1621
1612 1631
1612 1641
1612 1650
1612 1652
1612 1663
1612 1687
1612 1706
1612 1717
1612 1720
1612 1726
1612 1746
1612 1747
1612 1749
1612 1750
1612 1759
1612 1760
1612 1762
1612 1781
1612 1782
1612 1788
1613 1633
1613 1645
1613 1649
1613 1670
1613 1690
1613 1694
1613 1697
1613 1713
1613 1719
1613 1724
1613 1727
1613 1733
1613 1745
1613 1746
1613 1747
1613 1751
1613 1772
1613 1792
1614 1615
1614 1616
1614 1618
1614 1624
1614 1680
1614 1702
1614 1719
1614 1721
1614 1723
1614 1731
1614 1754
1614 1761
1614 1776
1614 1786
1614 1790
1615 1619
1615 1630
1615 1647
1615 1654
1615 1678
1615 1679
1615 1684
1615 1693
1615 1694
1615 1711
1615 1713
1615 1733
1615 1747
1615 1748
1615 1754
1615 1775
1615 1778
1615 1780
1615 1786
1616 1639
1616 1640
1616 1641
1616 1642
1616 1665
1616 1669
1616 1673
1616 1706
1616 1725
1616 1731
1616 1735
1616 1736
1616 1737
1616 1740
1616 1753
1616 1756
1616 1770
1616 1789
1616 1793
1616 1797
1616 1798
1617 1641
1617 1642
1617 1644
1617 1648
1617 1653
1617 1662
1617 1678
1617 1683
1617 1689
1617 1692
1617 1693
1617 1699
1617 1722
1617 1729
1617 1769
1617 1777
1617 1789
1617 1798
1618 1619
1618 1636
1618 1638
1618 1640
1618 1668
1618 1693
1618 1695
1618 1697
1618 1709
1618 1715
1618 1726
1618 1727
1618 1732
1618 1738
1618 1744
1618 1748
1618 1756
1618 1774
1618 1780
1618 1785
1618 1789
1619 1620
1619 1629
1619 1652
1619 1671
1619 1675
1619 1704
1619 1712
1619 1733
1619 1746
1619 1755
1619 1767
1619 1775
1619 1782
1619 1799
1620 1621
1620 1625
1620 1665
1620 1669
1620 1690
1620 1693
1620 1695
1620 1703
1620 1706
1620 1711
1620 1712
1620 1755
1620 1765
1620 1772
1620 1786
1620 1790
1620 1798
1620 1924
1621 1626
1621 1632
1621 1636
1621 1638
1621 1648
1621 1651
1621 1661
1621 1665
1621 1670
1621 1695
1621 1699
1621 1701
1621 1713
1621 1720
1621 1721
1621 1750
1621 1751
1621 1756
1621 1764
1621 1771
1621 1776
1621 1781
1621 1788
1621 1792
1622 1642
1622 1653
1622 1662
1622 1675
1622 1689
1622 1692
1622 1697
1622 1701
1622 1712
1622 1714
1622 1716
1622 1718
1622 1722
1622 1726
1622 1730
1622 1731
1622 1738
1622 1749
1622 1774
1622 1796
1623 1633
1623 1635
1623 1656
1623 1659
1623 1672
1623 1675
1623 1690
1623 1702
1623 1703
1623 1742
1623 1745
1623 1766
1623 1785
1623 1791
1624 1626
1624 1629
1624 1632
1624 1639
1624 1641
1624 1651
1624 1654
1624 1657
1624 1662
1624 1671
1624 1675
1624 1677
1624 1678
1624 1683
1624 1699
1624 1708
1624 1709
1624 1713
1624 1745
1624 1757
1624 1760
1624 1765
1624 1785
1624 1786
1624 1791
1625 1635
1625 1638
1625 1663
1625 1664
1625 1673
1625 1676
1625 1682
1625 1684
1625 1687
1625 1710
1625 1721
1625 1726
1625 1733
1625 1771
1625 1780
1625 1781
1625 1798
1626 1653
1626 1677
1626 1684
1626 1688
1626 1698
1626 1700
1626 1710
1626 1713
1626 1730
1626 1734
1626 1764
1626 1774
1626 1780
1626 1787
1626 1788
1626 1794
1626 1799
1627 1633
1627 1642
1627 1643
1627 1653
1627 1664
1627 1677
1627 1685
1627 1687
1627 1692
1627 1697
1627 1720
1627 1749
1627 1755
1627 1761
1627 1768
1627 1774
1627 1786
1627 1790
1628 1634
1628 1636
1628 1638
1628 1645
1628 1650
1628 1653
1628 1662
1628 1669
1628 1679
1628 1690
1628 1702
1628 1711
1628 1730
1628 1734
1628 1743
1628 1763
1628 1765
1628 1769
1628 1776
1628 1788
1628 1790
1629 1649
1629 1651
1629 1659
1629 1665
1629 1668
1629 1678
1629 1681
1629 1700
1629 1706
1629 1710
1629 1738
1629 1741
1629 1757
1629 1774
1629 1781
1629 1788
1629 1797
1630 1645
1630 1659
1630 1666
1630 1669
1630 1719
1630 1732
1630 1744
1630 1757
1630 1760
1630 1776
1630 1787
1630 1791
1630 1793
1631 1633
1631 1646
1631 1672
1631 1687
1631 1705
1631 1723
1631 1727
1631 1734
1631 1750
1631 1753
1631 1755
1631 1766
1631 1772
1631 1773
1631 1777
1631 1791
1631 1793
1631 1796
1632 1666
1632 1683
1632 1691
1632 1696
1632 1701
1632 1703
1632 1711
1632 1719
1632 1723
1632 1728
1632 1740
1632 1754
1632 1771
1632 1791
1632 1798
1633 1636
1633 1640
1633 1645
1633 1677
1633 1682
1633 1684
1633 1689
1633 1693
1633 1701
1633 1707
1633 1711
1633 1716
1633 1721
1633 1734
1633 1736
1633 1749
1633 1763
1633 1764
1633 1773
1633 1777
1634 1654
1634 1659
1634 1660
1634 1682
1634 1690
1634 1699
1634 1706
1634 1715
1634 1716
1634 1721
1634 1737
1634 1752
1634 1769
1634 1770
1634 1773
1634 1775
1634 1789
1634 1792
1635 1640
1635 1642
1635 1656
1635 1675
1635 1682
1635 1704
1635 1741
1635 1747
1635 1768
1635 1774
1635 1775
1635 1780
1635 1784
1636 1643
1636 1652
1636 1665
1636 1672
1636 1693
1636 1696
1636 1698
1636 1700
1636 1713
1636 1744
1636 1754
1636 1760
1636 1773
1636 1781
1636 1782
1636 1788
1637 1650
1637 1659
1637 1660
1637 1673
1637 1678
1637 1681
1637 1687
1637 1712
1637 1714
1637 1731
1637 1739
1638 1655
1638 1673
1638 1689
1638 1702
1638 1707
1638 1747
1638 1750
1638 1754
1638 1772
1638 1780
1638 1791
1638 1792
1638 1793
1639 1646
1639 1651
1639 1654
1639 1681
1639 1683
1639 1686
1639 1703
1639 1714
1639 1722
1639 1731
1639 1733
1639 1738
1639 1741
1639 1751
1639 1762
1639 1773
1639 1774
1639 1781
1640 1651
1640 1663
1640 1689
1640 1697
1640 1700
1640 1708
1640 1712
1640 1728
1640 1737
1640 1742
1640 1747
1640 1753
1640 1776
1640 1791
1640 1792
1640 1797
1640 1799
1641 1642
1641 1644
1641 1647
1641 1670
1641 1672
1641 1687
1641 1704
1641 1706
1641 1711
1641 1736
1641 1746
1641 1752
1641 1754
1641 1771
1641 1773
1641 1775
1641 1778
1641 1783
1641 1786
1641 1793
1642 1650
1642 1655
1642 1668
1642 1671
1642 1685
1642 1695
1642 1706
1642 1724
1642 1746
1642 1751
1642 1765
1642 1773
1642 1785
1643 1645
1643 1667
1643 1672
1643 1687
1643 1690
1643 1700
1643 1703
1643 1724
1643 1731
1643 1745
1643 1759
1643 1780
1643 1782
1643 1785
1643 1792
1644 1657
1644 1662
1644 1674
1644 1678
1644 1691
1644 1700
1644 1701
1644 1713
1644 1716
1644 1734
1644 1738
1644 1745
1644 1760
1644 1766
1644 1780
1644 1789
1644 1793
1644 1798
1644 1799
1645 1658
1645 1660
1645 1669
1645 1674
1645 1680
1645 1683
1645 1700
1645 1729
1645 1743
1645 1749
1645 1760
1645 1777
1646 1659
1646 1681
1646 1689
1646 1699
1646 1705
1646 1709
1646 1719
1646 1737
1646 1777
1646 1787
1646 1799
1647 1650
1647 1653
1647 1656
1647 1661
1647 1668
1647 1670
1647 1673
1647 1680
1647 1694
1647 1718
1647 1726
1647 1727
1647 1742
1647 1764
1647 1771
1647 1772
1647 1773
1647 1785
1647 1795
1648 1669
1648 1691
1648 1703
1648 1708
1648 1711
1648 1713
1648 1746
1648 1761
1648 1763
1648 1765
1648 1768
1648 1771
1648 1780
1648 1781
1648 1792
1649 1655
1649 1667
1649 1668
1649 1670
1649 1675
1649 1682
1649 1686
1649 1689
1649 1697
1649 1700
1649 1701
1649 1707
1649 1708
1649 1717
1649 1719
1649 1721
1649 1730
1649 1754
1649 1758
1649 1770
1649 1798
1650 1659
1650 1664
1650 1676
1650 1686
1650 1688
1650 1693
1650 1706
1650 1707
1650 1723
1650 1727
1650 1732
1650 1733
1650 1738
1650 1741
1650 1751
1650 1798
1651 1654
1651 1671
1651 1673
1651 1678
1651 1680
1651 1691
1651 1696
1651 1705
1651 1713
1651 1720
1651 1727
1651 1734
1651 1742
1651 1744
1651 1745
1651 1752
1651 1779
1651 1791
1652 1678
1652 1685
1652 1719
1652 1720
1652 1728
1652 1745
1652 1759
1652 1771
1652 1775
1652 1783
1652 1789
1652 1791
1652 1793
1653 1654
1653 1655
1653 1667
1653 1675
1653 1694
1653 1696
1653 1704
1653 1705
1653 1708
1653 1709
1653 1716
1653 1722
1653 1727
1653 1740
1653 1741
1653 1744
1653 1748
1653 1752
1653 1771
1653 1784
1654 1658
1654 1659
1654 1663
1654 1677
1654 1678
1654 1686
1654 1718
1654 1721
1654 1745
1654 1747
1654 1749
1654 1769
1654 1798
1655 1656
1655 1672
1655 1681
1655 1685
1655 1691
1655 1693
1655 1695
1655 1703
1655 1723
1655 1787
1655 1792
1656 1660
1656 1665
1656 1698
1656 1707
1656 1708
1656 1719
1656 1721
1656 1743
1656 1752
1657 1658
1657 1674
1657 1685
1657 1691
1657 1692
1657 1702
1657 1711
1657 1734
1657 1743
1657 1744
1657 1751
1657 1760
1657 1764
1657 1775
1657 1789
1657 1791
1657 1795
1658 1675
1658 1677
1658 1707
1658 1711
1658 1724
1658 1750
1658 1753
1658 1777
1658 1790
1658 1791
1658 1797
1658 1799
1659 1664
1659 1699
1659 1703
1659 1706
1659 1717
1659 1718
1659 1720
1659 1722
1659 1725
1659 1729
1659 1737
1659 1758
1659 1760
1659 1779
1659 1780
1659 1783
1659 1784
1659 1791
1660 1673
1660 1676
1660 1693
1660 1713
1660 1718
1660 1720
1660 1723
1660 1732
1660 1751
1660 1773
1660 1779
1660 1792
1661 1669
1661 1670
1661 1672
1661 1682
1661 1690
1661 1692
1661 1693
1661 1696
1661 1699
1661 1724
1661 1749
1661 1761
1661 1767
1661 1772
1661 1774
1661 1777
1661 1781
1661 1784
1661 1791
1662 1666
1662 1671
1662 1674
1662 1700
1662 1701
1662 1703
1662 1704
1662 1716
1662 1728
1662 1731
1662 1732
1662 1745
1662 1749
1662 1757
1662 1772
1662 1781
1662 1782
1663 1673
1663 1691
1663 1693
1663 1707
1663 1710
1663 1711
1663 1714
1663 1725
1663 1732
1663 1736
1663 1740
1663 1744
1663 1757
1663 1773
1663 1776
1663 1796
1664 1665
1664 1667
1664 1668
1664 1677
1664 1682
1664 1690
1664 1705
1664 1708
1664 1712
1664 1723
1664 1726
1664 1762
1664 1774
1664 1777
1664 1782
1665 1676
1665 1685
1665 1698
1665 1699
1665 1702
1665 1735
1665 1755
1665 1763
1665 1774
1665 1779
1665 1783
1665 1784
1666 1678
1666 1682
1666 1688
1666 1695
1666 1706
1666 1722
1666 1748
1666 1749
1666 1755
1666 1799
1667 1670
1667 1674
1667 1679
1667 1686
1667 1695
1667 1701
1667 1712
1667 1714
1667 1715
1667 1727
1667 1745
1667 1746
1667 1747
1667 1752
1667 1757
1667 1759
1667 1761
1667 1768
1667 1770
1667 1784
1667 1792
1667 1793
1668 1673
1668 1690
1668 1698
1668 1705
1668 1707
1668 1713
1668 1716
1668 1718
1668 1746
1668 1783
1668 1789
1668 1793
1668 1797
1668 1798
1669 1675
1669 1680
1669 1687
1669 1698
1669 1704
1669 1705
1669 1710
1669 1714
1669 1738
1669 1739
1669 1749
1669 1758
1669 1769
1669 1776
1670 1676
1670 1695
1670 1708
1670 1717
1670 1727
1670 1732
1670 1736
1670 1779
1670 1781
1670 1792
1671 1676
1671 1697
1671 1711
1671 1727
1671 1733
1671 1750
1671 1751
1671 1752
1671 1774
1671 1776
1671 1779
1671 1781
1671 1785
1671 1799
1672 1673
1672 1687
1672 1703
1672 1711
1672 1716
1672 1719
1672 1722
1672 1732
1672 1739
1672 1755
1672 1790
1672 1793
1673 1682
1673 1687
1673 1691
1673 1695
1673 1702
1673 1704
1673 1711
1673 1715
1673 1727
1673 1734
1673 1741
1673 1745
1673 1754
1673 1761
1673 1766
1673 1792
1673 1794
1673 1796
1674 1682
1674 1697
1674 1703
1674 1710
1674 1731
1674 1740
1674 1742
1674 1757
1674 1773
1674 1776
1674 1782
1674 1789
1674 1799
1675 1680
1675 1684
1675 1698
1675 1707
1675 1708
1675 1717
1675 1730
1675 1734
1675 1740
1675 1758
1676 1679
1676 1700
1676 1714
1676 1719
1676 1722
1676 1726
1676 1735
1676 1751
1676 1787
1676 1789
1677 1680
1677 1683
1677 1689
1677 1721
1677 1759
1677 1760
1677 1763
1677 1772
1677 1773
1677 1777
1677 1783
1677 1794
1678 1686
1678 1701
1678 1705
1678 1715
1678 1729
1678 1744
1678 1755
1678 1765
1678 1780
1678 1787
1678 1788
1678 1790
1679 1695
1679 1709
1679 1710
1679 1713
1679 1714
1679 1717
1679 1727
1679 1729
1679 1732
1679 1760
1679 1780
1679 1783
1680 1688
1680 1690
1680 1694
1680 1703
1680 1704
1680 1715
1680 1727
1680 1753
1680 1754
1680 1756
1680 1776
1680 1779
1680 1780
1680 1782
1680 1794
1681 1689
1681 1702
1681 1704
1681 1709
1681 1711
1681 1722
1681 1723
1681 1727
1681 1729
1681 1732
1681 1734
1681 1748
1681 1750
1681 1752
1681 1753
1681 1762
1681 1767
1681 1772
1681 1778
1681 1780
1681 1783
1681 1795
1682 1683
1682 1693
1682 1729
1682 1743
1682 1746
1682 1747
1682 1748
1682 1764
1682 1767
1682 1770
1682 1774
1682 1783
1683 1690
1683 1695
1683 1711
1683 1718
1683 1719
1683 1722
1683 1725
1683 1726
1683 1728
1683 1732
1683 1734
1683 1742
1683 1743
1683 1753
1683 1758
1683 1760
1683 1761
1683 1765
1684 1692
1684 1722
1684 1734
1684 1758
1684 1761
1684 1766
1685 1720
1685 1725
1685 1726
1685 1740
1685 1746
1685 1751
1685 1757
1685 1780
1685 1785
1685 1789
1685 1793
1685 1796
1686 1687
1686 1709
1686 1716
1686 1718
1686 1724
1686 1731
1686 1748
1686 1757
1686 1759
1686 1760
1686 1763
1686 1766
1686 1776
1687 1695
1687 1707
1687 1717
1687 1743
1687 1753
1687 1760
1687 1768
1687 1771
1688 1703
1688 1706
1688 1720
1688 1722
1688 1739
1688 1763
1688 1765
1688 1783
1689 1690
1689 1691
1689 1703
1689 1714
1689 1718
1689 1719
1689 1730
1689 1745
1689 1747
1689 1754
1689 1759
1689 1760
1689 1784
1690 1714
1690 1723
1690 1726
1690 1730
1690 1731
1690 1739
1690 1748
1690 1767
1690 1779
1690 1790
1690 1797
1691 1696
1691 1697
1691 1702
1691 1703
1691 1732
1691 1734
1691 1747
1691 1759
1691 1761
1691 1766
1691 1770
1692 1698
1692 1708
1692 1715
1692 1716
1692 1718
1692 1725
1692 1726
1692 1730
1692 1734
1692 1735
1692 1748
1692 1757
1692 1777
1692 1780
1692 1789
1693 1708
1693 1711
1693 1712
1693 1715
1693 1722
1693 1732
1693 1736
1693 1739
1693 1766
1693 1777
1693 1794
1694 1696
1694 1740
1694 1762
1694 1779
1694 1787
1694 1793
1695 1722
1695 1752
1695 1753
1695 1758
1695 1787
1695 1889
1696 1725
1696 1732
1696 1733
1696 1736
1696 1759
1696 1766
1696 1767
1696 1772
1696 1781
1696 1792
1696 1793
1696 1795
1697 1704
1697 1706
1697 1716
1697 1718
1697 1721
1697 1723
1697 1733
1697 1739
1697 1742
1697 1750
1697 1759
1697 1767
1697 1768
1697 1769
1697 1775
1697 1786
1697 1790
1697 1794
1698 1707
1698 1714
1698 1738
1698 1740
1698 1745
1698 1747
1698 1793
1699 1704
1699 1727
1699 1745
1699 1758
1699 1764
1699 1778
1700 1734
1700 1737
1700 1769
1701 1710
1701 1712
1701 1714
1701 1719
1701 1729
1701 1746
1701 1752
1701 1754
1701 1766
1701 1772
1702 1714
1702 1716
1702 1739
1702 1740
1702 1754
1702 1757
1702 1762
1702 1764
1702 1778
1702 1779
1702 1784
1702 1785
1702 1787
1703 1704
1703 1722
1703 1728
1703 1737
1703 1746
1703 1748
1703 1777
1703 1781
1704 1716
1704 1729
1704 1730
1704 1739
1704 1742
1704 1752
1704 1753
1704 1773
1704 1777
1704 1788
1704 1790
1704 1797
1705 1714
1705 1715
1705 1726
1705 1727
1705 1729
1705 1743
1705 1752
1705 1758
1705 1760
1705 1767
1705 1776
1705 1786
1705 1794
1705 1834
1706 1710
1706 1753
1706 1760
1706 1761
1706 1786
1706 1793
1707 1710
1707 1721
1707 1751
1707 1766
1707 1783
1707 1784
1707 1798
1708 1720
1708 1724
1708 1731
1708 1742
1708 1755
1708 1760
1708 1779
1709 1711
1709 1723
1709 1727
1709 1733
1709 1735
1709 1769
1709 1776
1709 1783
1709 1795
1710 1718
1710 1722
1710 1770
1710 1773
1711 1716
1711 1725
1711 1735
1711 1739
1711 1740
1711 1744
1711 1748
1711 1768
1712 1718
1712 1721
1712 1728
1712 1739
1712 1767
1712 1782
1712 1793
1713 1718
1713 1724
1713 1742
1713 1768
1713 1777
1713 1791
1714 1728
1714 1764
1714 1768
1714 1769
1714 1777
1715 1718
1715 1727
1715 1759
1715 1762
1715 1774
1715 1780
1715 1785
1715 1792
1716 1719
1716 1720
1716 1731
1716 1735
1716 1752
1716 1782
1717 1719
1717 1737
1717 1740
1717 1749
1717 1754
1717 1758
1717 1770
1717 1780
1717 1784
1717 1785
1717 1796
1718 1719
1718 1736
1718 1739
1718 1743
1718 1748
1718 1772
1718 1780
1719 1721
1719 1729
1719 1758
1719 1764
1719 1786
1719 1795
1720 1743
1720 1749
1720 1770
1720 1777
1721 1724
1721 1729
1721 1733
1721 1753
1721 1767
1721 1771
1722 1723
1722 1755
1722 1756
1722 1758
1722 1760
1722 1778
1723 1730
1723 1735
1723 1741
1723 1750
1723 1763
1723 1772
1723 1779
1724 1729
1724 1758
1724 1765
1724 1769
1724 1790
1724 1793
1725 1730
1725 1731
1725 1736
1725 1748
1725 1755
1725 1769
1725 1770
1725 1797
1726 1749
1726 1750
1726 1793
1726 1798
1727 1752
1727 1763
1727 1784
1727 1794
1727 1797
1728 1733
1728 1737
1728 1742
1728 1749
1728 1750
1728 1759
1728 1773
1728 1777
1728 1778
1728 1781
1728 1785
1729 1749
1729 1752
1729 1756
1729 1766
1729 1769
1729 1774
1729 1791
1729 1799
1729 1942
1730 1737
1730 1743
1730 1765
1730 1776
1730 1777
1730 1780
1730 1791
1730 1794
1731 1734
1731 1780
1731 1785
1731 1798
1732 1734
1732 1738
1732 1740
1732 1748
1732 1751
1732 1774
1733 1751
1733 1777
1733 1779
1733 1789
1733 1796
1734 1735
1734 1777
1735 1752
1735 1774
1735 1793
1736 1738
1736 1739
1736 1752
1736 1757
1736 1761
1736 1770
1736 1772
1736 1776
1736 1785
1737 1747
1737 1749
1737 1752
1737 1766
1737 1769
1737 1773
1738 1753
1738 1772
1738 1773
1738 1780
1738 1783
1739 1741
1739 1779
1739 1784
1739 1793
1740 1742
1740 1770
1740 1772
1740 1773
1740 1787
1741 1751
1741 1764
1741 1771
1741 1776
1741 1791
1742 1745
1742 1759
1742 1764
1742 1776
1742 1782
1742 1785
1742 1799
1743 1749
1743 1763
1743 1780
1743 1782
1743 1783
1743 1785
1744 1755
1744 1761
1744 1762
1744 1786
1744 1790
1745 1746
1745 1751
1745 1760
1745 1776
1745 1777
1745 1788
1746 1768
1746 1780
1746 1788
1746 1793
1747 1762
1747 1763
1747 1768
1747 1769
1747 1785
1747 1798
1748 1750
1748 1777
1748 1781
1748 1789
1749 1757
1749 1778
1749 1784
1749 1786
1749 1790
1749 1799
1750 1756
1750 1769
1750 1774
1750 1785
1751 1778
1751 1782
1751 1784
1752 1757
1752 1770
1752 1777
1752 1781
1752 1783
1752 1788
1753 1769
1753 1770
1753 1780
1753 1784
1753 1797
1754 1763
1754 1768
1754 1778
1754 1789
1754 1790
1755 1757
1755 1764
1755 1765
1755 1770
1755 1772
1755 1779
1755 1781
1756 1766
1756 1779
1757 1758
1757 1762
1757 1765
1757 1774
1758 1783
1758 1796
1759 1799
1760 1762
1760 1763
1760 1769
1760 1774
1760 1778
1760 1780
1760 1782
1760 1793
1761 1762
1761 1763
1761 1796
1761 1799
1762 1769
1762 1775
1762 1776
1762 1780
1762 1783
1762 1790
1763 1765
1764 1779
1764 1781
1764 1782
1765 1766
1765 1777
1765 1780
1765 1784
1766 1774
1766 1776
1767 1770
1767 1778
1767 1783
1767 1787
1767 1788
1767 1799
1768 1769
1768 1783
1768 1795
1768 1797
1769 1771
1769 1780
1769 1789
1769 1796
1770 1775
1771 1794
1771 1796
1771 1799
1772 1797
1772 1798
1773 1784
1773 1785
1773 1789
1774 1777
1774 1787
1774 1792
1774 1794
1774 1795
1775 1780
1775 1782
1775 1785
1775 1792
1775 1796
1776 1780
1776 1798
1777 1782
1777 1799
1778 1779
1778 1794
1779 1787
1780 1782
1780 1791
1780 1792
1780 1794
1780 1799
1782 1788
1782 1791
1782 1793
1783 1792
1783 1795
1783 1796
1785 1786
1785 1789
1785 1792
1785 1794
1786 1791
1787 1790
1787 1796
1788 1794
1789 1793
1791 1792
1791 1799
1792 1798
1795 1798
1797 1799
1800 1814
1800 1828
1800 1834
1800 1852
1800 1861
1800 1862
1800 1866
1800 1873
1800 1879
1800 1886
1800 1892
1800 1895
1800 1909
1800 1910
1800 1939
1800 1944
1800 1955
1800 1968
1800 1972
1800 1974
1800 1989
1801 1817
1801 1846
1801 1855
1801 1871
1801 1877
1801 1881
1801 1885
1801 1886
1801 1900
1801 1903
1801 1907
1801 1909
1801 1916
1801 1921
1801 1935
1801 1936
1801 1958
1801 1967
1801 1973
1801 1980
1801 1999
1802 1818
1802 1824
1802 1834
1802 1843
1802 1848
1802 1880
1802 1885
1802 1887
1802 1893
1802 1900
1802 1911
1802 1933
1802 1948
1802 1951
1802 1970
1802 1979
1802 1981
1802 1983
1802 1992
1802 1993
1803 1807
1803 1813
1803 1831
1803 1833
1803 1839
1803 1854
1803 1882
1803 1887
1803 1918
1803 1945
1803 1956
1803 1971
1803 1982
1803 1993
1803 1999
1804 1812
1804 1814
1804 1846
1804 1856
1804 1870
1804 1873
1804 1900
1804 1950
1804 1951
1804 1960
1804 1967
1804 1971
1804 1988
1804 1989
1804 1990
1805 1817
1805 1821
1805 1826
1805 1839
1805 1846
1805 1851
1805 1871
1805 1879
1805 1880
1805 1890
1805 1909
1805 1913
1805 1916
1805 1955
1805 1958
1805 1963
1805 1965
1805 1971
1806 1818
1806 1827
1806 1834
1806 1840
1806 1848
1806 1851
1806 1871
1806 1874
1806 1875
1806 1876
1806 1889
1806 1892
1806 1900
1806 1909
1806 1914
1806 1921
1806 1929
1806 1935
1806 1952
1807 1810
1807 1819
1807 1826
1807 1833
1807 1839
1807 1842
1807 1863
1807 1891
1807 1892
1807 1917
1807 1923
1807 1931
1807 1936
1807 1951
1807 1964
1807 1982
1807 1994
1808 1815
1808 1819
1808 1820
1808 1825
1808 1826
1808 1828
1808 1845
1808 1852
1808 1861
1808 1878
1808 1880
1808 1905
1808 1906
1808 1921
1808 1922
1808 1923
1808 1939
1808 1941
1808 1951
1808 1961
1808 1975
1808 1977
1808 1979
1808 1982
1808 1987
1809 1810
1809 1824
1809 1832
1809 1835
1809 1837
1809 1839
1809 1855
1809 1858
1809 1870
1809 1879
1809 1882
1809 1894
1809 1896
1809 1939
1809 1942
1809 1949
1809 1952
1809 1972
1809 1992
1810 1811
1810 1827
1810 1837
1810 1838
1810 1843
1810 1854
1810 1870
1810 1873
1810 1874
1810 1883
1810 1893
1810 1901
1810 1929
1810 1930
1810 1940
1810 1961
1810 1965
1810 1984
1811 1852
1811 1854
1811 1860
1811 1864
1811 1867
1811 1874
1811 1887
1811 1898
1811 1916
1811 1919
1811 1922
1811 1925
1811 1950
1811 1953
1811 1972
1811 1985
1811 1990
1812 1813
1812 1818
1812 1835
1812 1840
1812 1852
1812 1862
1812 1863
1812 1879
1812 1882
1812 1891
1812 1899
1812 1908
1812 1927
1812 1956
1812 1969
1812 1975
1812 1977
1812 1983
1813 1830
1813 1842
1813 1845
1813 1853
1813 1856
1813 1860
1813 1867
1813 1874
1813 1898
1813 1904
1813 1908
1813 1909
1813 1944
1813 1945
1813 1946
1813 1949
1813 1973
1813 1982
1813 1988
1813 1991
1813 1996
1814 1822
1814 1826
1814 1839
1814 1862
1814 1866
1814 1880
1814 1885
1814 1887
1814 1939
1814 1942
1814 1968
1814 1981
1814 1988
1814 1989
1814 1990
1815 1820
1815 1848
1815 1850
1815 1868
1815 1887
1815 1909
1815 1929
1815 1948
1815 1957
1815 1961
1815 1985
1816 1819
1816 1820
1816 1828
1816 1838
1816 1881
1816 1882
1816 1890
1816 1891
1816 1899
1816 1906
1816 1911
1816 1915
1816 1935
1816 1945
1816 1954
1816 1957
1816 1966
1816 1969
1817 1822
1817 1846
1817 1858
1817 1862
1817 1864
1817 1865
1817 1897
1817 1910
1817 1913
1817 1919
1817 1921
1817 1990
1817 1998
1818 1825
1818 1829
1818 1837
1818 1848
1818 1864
1818 1883
1818 1917
1818 1931
1818 1937
1818 1939
1818 1947
1818 1950
1818 1961
1818 1978
1818 1984
1818 1989
1819 1820
1819 1825
1819 1839
1819 1854
1819 1861
1819 1894
1819 1895
1819 1905
1819 1910
1819 1915
1819 1917
1819 1923
1819 1931
1819 1938
1819 1941
1819 1942
1819 1966
1819 1981
1819 1986
1819 1989
1819 1992
1820 1823
1820 1826
1820 1849
1820 1862
1820 1883
1820 1893
1820 1911
1820 1916
1820 1934
1820 1962
1821 1828
1821 1859
1821 1861
1821 1869
1821 1882
1821 1891
1821 1892
1821 1908
1821 1910
1821 1911
1821 1915
1821 1916
1821 1954
1821 1963
1821 1971
1821 1978
1821 1979
1821 1984
1821 1988
1821 1999
1822 1830
1822 1853
1822 1874
1822 1878
1822 1892
1822 1895
1822 1898
1822 1907
1822 1911
1822 1914
1822 1920
1822 1937
1822 1941
1822 1953
1822 1954
1822 1972
1822 1999
1823 1830
1823 1844
1823 1846
1823 1849
1823 1858
1823 1873
1823 1875
1823 1885
1823 1907
1823 1920
1823 1924
1823 1925
1823 1927
1823 1928
1823 1930
1823 1937
1823 1940
1823 1942
1823 1944
1823 1946
1823 1952
1823 1956
1823 1958
1823 1966
1823 1973
1823 1982
1823 1985
1823 1989
1823 1992
1823 1995
1823 1996
1824 1837
1824 1839
1824 1855
1824 1883
1824 1890
1824 1900
1824 1902
1824 1903
1824 1909
1824 1926
1824 1930
1824 1948
1824 1963
1824 1973
1825 1861
1825 1864
1825 1865
1825 1874
1825 1880
1825 1881
1825 1885
1825 1887
1825 1888
1825 1889
1825 1911
1825 1926
1825 1933
1825 1943
1825 1957
1825 1964
1825 1968
1825 1972
1825 1977
1825 1980
1825 1982
1825 1986
1825 1999
1826 1842
1826 1844
1826 1846
1826 1849
1826 1850
1826 1866
1826 1883
1826 1884
1826 1902
1826 1906
1826 1908
1826 1912
1826 1927
1826 1948
1826 1952
1827 1832
1827 1857
1827 1864
1827 1870
1827 1875
1827 1876
1827 1883
1827 1926
1827 1927
1827 1929
1827 1940
1827 1952
1827 1962
1827 1974
1827 1977
1827 1996
1828 1835
1828 1842
1828 1846
1828 1848
1828 1886
1828 1891
1828 1895
1828 1909
1828 1931
1828 1943
1828 1947
1828 1949
1828 1950
1828 1959
1828 1960
1828 1967
1828 1972
1828 1976
1828 1994
1828 1995
1829 1833
1829 1839
1829 1845
1829 1848
1829 1862
1829 1867
1829 1872
1829 1912
1829 1941
1829 1954
1829 1957
1829 1988
1829 1989
1830 1844
1830 1846
1830 1857
1830 1875
1830 1883
1830 1885
1830 1890
1830 1891
1830 1900
1830 1901
1830 1902
1830 1910
1830 1912
1830 1914
1830 1918
1830 1923
1830 1948
1830 1950
1830 1957
1830 1958
1830 1971
1830 1974
1830 1984
1830 1990
1830 1994
1831 1833
1831 1871
1831 1873
1831 1876
1831 1906
1831 1913
1831 1920
1831 1943
1831 1950
1831 1951
1831 1957
1831 1965
1831 1968
1831 1973
1831 1991
1831 1994
1832 1837
1832 1843
1832 1852
1832 1855
1832 1857
1832 1861
1832 1862
1832 1875
1832 1878
1832 1885
1832 1895
1832 1910
1832 1911
1832 1916
1832 1921
1832 1956
1832 1967
1832 1971
1832 1993
1833 1844
1833 1850
1833 1866
1833 1882
1833 1883
1833 1909
1833 1959
1833 1986
1833 1997
1834 1843
1834 1867
1834 1877
1834 1882
1834 1885
1834 1890
1834 1893
1834 1900
1834 1916
1834 1920
1834 1925
1834 1944
1834 1946
1834 1978
1835 1845
1835 1849
1835 1850
1835 1884
1835 1885
1835 1894
1835 1899
1835 1908
1835 1927
1835 1929
1835 1936
1835 1943
1835 1983
1835 1990
1836 1867
1836 1878
1836 1882
1836 1894
1836 1899
1836 1906
1836 1923
1836 1954
1837 1857
1837 1860
1837 1864
1837 1868
1837 1877
1837 1886
1837 1899
1837 1911
1837 1937
1837 1948
1837 1957
1837 1958
1837 1969
1837 1995
1838 1853
1838 1871
1838 1882
1838 1886
1838 1887
1838 1896
1838 1909
1838 1940
1838 1947
1838 1950
1838 1962
1838 1966
1838 1973
1838 1985
1839 1850
1839 1874
1839 1881
1839 1882
1839 1885
1839 1910
1839 1914
1839 1952
1839 1966
1839 1975
1839 1996
1840 1844
1840 1859
1840 1863
1840 1878
1840 1896
1840 1900
1840 1903
1840 1906
1840 1915
1840 1944
1840 1954
1840 1955
1840 1967
1840 1969
1840 1970
1840 1977
1840 1999
1841 1868
1841 1870
1841 1881
1841 1906
1841 1913
1841 1914
1841 1930
1841 1935
1841 1936
1841 1938
1841 1956
1841 1967
1841 1973
1841 1978
1841 1987
1841 1997
1842 1860
1842 1867
1842 1877
1842 1882
1842 1895
1842 1903
1842 1906
1842 1914
1842 1924
1842 1926
1842 1931
1842 1941
1842 1957
1842 1976
1842 1984
1842 1985
1842 1991
1843 1844
1843 1851
1843 1880
1843 1914
1843 1920
1843 1934
1843 1939
1843 1970
1843 1971
1843 1974
1843 1991
1843 1996
1844 1849
1844 1859
1844 1874
1844 1875
1844 1889
1844 1894
1844 1901
1844 1926
1844 1932
1844 1943
1844 1951
1844 1965
1844 1979
1844 1982
1844 1985
1844 1991
1845 1856
1845 1888
1845 1891
1845 1897
1845 1918
1845 1920
1845 1921
1845 1927
1845 1931
1845 1945
1845 1951
1845 1972
1845 1975
1845 1977
1845 1979
1845 1991
1846 1869
1846 1883
1846 1893
1846 1895
1846 1910
1846 1929
1846 1930
1846 1932
1846 1955
1846 1959
1846 1961
1846 1963
1846 1978
1846 1982
1846 1987
1847 1849
1847 1853
1847 1857
1847 1858
1847 1879
1847 1883
1847 1907
1847 1921
1847 1948
1847 1949
1847 1950
1847 1965
1847 1987
1847 1994
1847 1996
1847 1997
1847 1999
1848 1852
1848 1861
1848 1862
1848 1863
1848 1872
1848 1878
1848 1896
1848 1898
1848 1910
1848 1914
1848 1918
1848 1939
1848 1943
1848 1944
1848 1955
1848 1956
1848 1962
1848 1964
1848 1983
1848 1986
1848 1987
1848 1992
1848 1994
1848 1999
1849 1867
1849 1870
1849 1875
1849 1902
1849 1923
1849 1943
1849 1946
1849 1947
1849 1951
1849 1971
1849 1978
1849 1982
1849 1983
1849 1997
1849 1999
1850 1855
1850 1859
1850 1861
1850 1872
1850 1878
1850 1881
1850 1883
1850 1886
1850 1908
1850 1915
1850 1930
1850 1935
1850 1944
1850 1948
1850 1951
1850 1952
1850 1968
1850 1992
1850 1993
1851 1858
1851 1862
1851 1869
1851 1897
1851 1898
1851 1921
1851 1924
1851 1929
1851 1937
1851 1965
1851 1975
1851 1988
1851 1997
1851 1999
1852 1900
1852 1903
1852 1913
1852 1920
1852 1932
1852 1934
1852 1935
1852 1941
1852 1951
1852 1955
1852 1960
1852 1964
1852 1969
1852 1972
1852 1978
1852 1984
1852 1990
1852 1994
1853 1860
1853 1918
1853 1949
1853 1954
1853 1966
1853 1982
1853 1989
1854 1856
1854 1869
1854 1873
1854 1879
1854 1894
1854 1908
1854 1915
1854 1916
1854 1937
1854 1944
1854 1970
1854 1972
1854 1987
1855 1874
1855 1875
1855 1885
1855 1895
1855 1909
1855 1914
1855 1921
1855 1923
1855 1926
1855 1938
1855 1949
1855 1958
1855 1960
1855 1963
1856 1860
1856 1874
1856 1877
1856 1901
1856 1928
1856 1936
1856 1955
1856 1956
1856 1958
1856 1962
1856 1964
1856 1966
1856 1976
1856 1980
1856 1990
1856 1997
1857 1877
1857 1891
1857 1896
1857 1898
1857 1906
1857 1918
1857 1938
1857 1955
1857 1961
1857 1963
1857 1970
1857 1982
1857 1983
1858 1861
1858 1868
1858 1874
1858 1894
1858 1895
1858 1910
1858 1915
1858 1924
1858 1928
1858 1929
1858 1947
1858 1952
1858 1964
1858 1985
1858 1988
1859 1871
1859 1877
1859 1881
1859 1885
1859 1899
1859 1900
1859 1914
1859 1920
1859 1927
1859 1945
1859 1946
1859 1948
1859 1949
1859 1960
1860 1877
1860 1880
1860 1900
1860 1923
1860 1924
1860 1930
1860 1933
1860 1938
1860 1939
1860 1950
1860 1957
1860 1973
1860 1981
1861 1871
1861 1881
1861 1892
1861 1896
1861 1901
1861 1903
1861 1919
1861 1942
1861 1955
1861 1963
1861 1972
1861 1981
1861 1988
1861 1992
1862 1875
1862 1877
1862 1883
1862 1891
1862 1892
1862 1900
1862 1902
1862 1908
1862 1914
1862 1916
1862 1917
1862 1932
1862 1964
1862 1969
1862 1971
1862 1973
1862 1982
1862 1988
1862 1997
1863 1888
1863 1894
1863 1906
1863 1908
1863 1919
1863 1928
1863 1947
1863 1951
1863 1958
1863 1960
1863 1962
1863 1976
1863 1977
1863 1983
1864 1866
1864 1877
1864 1885
1864 1895
1864 1896
1864 1907
1864 1909
1864 1921
1864 1925
1864 1928
1864 1933
1864 1938
1864 1948
1864 1950
1864 1952
1864 1958
1864 1979
1864 1987
1865 1879
1865 1889
1865 1891
1865 1895
1865 1896
1865 1897
1865 1903
1865 1904
1865 1910
1865 1912
1865 1924
1865 1930
1865 1940
1865 1948
1865 1975
1865 1980
1865 1988
1866 1884
1866 1919
1866 1927
1866 1934
1866 1941
1866 1946
1866 1963
1866 1983
1866 1984
1867 1878
1867 1889
1867 1891
1867 1917
1867 1919
1867 1924
1867 1939
1867 1940
1867 1956
1867 1957
1867 1960
1867 1962
1867 1973
1867 1975
1867 1993
1868 1871
1868 1880
1868 1895
1868 1896
1868 1899
1868 1901
1868 1924
1868 1930
1868 1932
1868 1980
1868 1992
1869 1896
1869 1898
1869 1923
1869 1948
1869 1950
1869 1955
1869 1968
1869 1993
1869 1995
1870 1877
1870 1883
1870 1892
1870 1912
1870 1928
1870 1948
1870 1962
1870 1965
1870 1966
1870 1968
1870 1976
1870 1987
1870 1989
1871 1888
1871 1922
1871 1925
1871 1929
1871 1931
1871 1934
1871 1936
1871 1941
1871 1946
1871 1955
1871 1957
1871 1970
1871 1977
1871 1983
1872 1877
1872 1879
1872 1890
1872 1910
1872 1943
1872 1945
1872 1968
1872 1977
1872 1987
1872 1989
1873 1880
1873 1888
1873 1890
1873 1905
1873 1917
1873 1919
1873 1932
1873 1943
1873 1944
1873 1968
1873 1969
1873 1981
1873 1986
1873 1992
1873 1994
1873 1997
1873 1999
1874 1882
1874 1883
1874 1888
1874 1909
1874 1934
1874 1939
1874 1948
1874 1985
1874 1990
1874 1994
1875 1879
1875 1881
1875 1882
1875 1909
1875 1921
1875 1929
1875 1941
1875 1945
1875 1949
1875 1966
1875 1968
1875 1975
1875 1989
1876 1879
1876 1886
1876 1887
1876 1894
1876 1903
1876 1905
1876 1907
1876 1908
1876 1962
1876 1984
1876 1988
1877 1894
1877 1900
1877 1915
1877 1919
1877 1944
1877 1966
1877 1976
1878 1898
1878 1904
1878 1915
1878 1923
1878 1929
1878 1943
1878 1949
1878 1952
1878 1956
1878 1959
1878 1962
1878 1967
1878 1980
1878 1981
1878 1986
1878 1990
1879 1883
1879 1895
1879 1899
1879 1900
1879 1902
1879 1904
1879 1921
1879 1923
1879 1930
1879 1953
1879 1956
1879 1964
1879 1969
1879 1993
1879 1997
1880 1884
1880 1904
1880 1916
1880 1927
1880 1932
1880 1933
1880 1948
1880 1952
1880 1962
1880 1966
1881 1917
1881 1923
1881 1930
1881 1943
1881 1952
1881 1966
1881 1978
1881 1980
1882 1902
1882 1906
1882 1928
1882 1929
1882 1930
1882 1932
1882 1953
1882 1955
1882 1968
1882 1986
1882 1991
1883 1889
1883 1898
1883 1906
1883 1927
1883 1928
1883 1936
1883 1943
1883 1948
1883 1973
1883 1981
1883 1982
1883 1991
1884 1925
1884 1931
1884 1933
1884 1934
1884 1945
1884 1976
1884 1986
1884 1990
1884 1993
1884 1994
1885 1886
1885 1904
1885 1906
1885 1907
1885 1929
1885 1946
1885 1947
1885 1952
1885 1968
1885 1973
1886 1887
1886 1917
1886 1920
1886 1928
1886 1961
1886 1963
1886 1972
1886 1987
1886 1995
1887 1909
1887 1923
1887 1924
1887 1927
1887 1946
1887 1949
1887 1960
1887 1962
1887 1965
1887 1983
1888 1907
1888 1911
1888 1917
1888 1930
1888 1938
1888 1974
1888 1975
1888 1983
1888 1987
1889 1890
1889 1930
1889 1932
1889 1946
1889 1952
1889 1973
1889 1983
1890 1895
1890 1906
1890 1910
1890 1935
1890 1939
1890 1945
1890 1947
1890 1964
1890 1965
1890 1972
1890 1985
1891 1908
1891 1937
1891 1948
1891 1970
1891 1982
1891 1994
1892 1897
1892 1916
1892 1922
1892 1931
1892 1932
1892 1937
1892 1939
1892 1941
1892 1942
1892 1960
1892 1972
1892 1985
1892 1993
1893 1904
1893 1922
1893 1924
1893 1932
1893 1933
1893 1953
1893 1956
1893 1957
1893 1960
1893 1981
1893 1983
1893 1991
1893 1996
1894 1897
1894 1916
1894 1919
1894 1934
1894 1943
1894 1944
1894 1946
1894 1949
1894 1953
1894 1957
1894 1961
1894 1968
1894 1973
1894 1981
1894 1986
1894 1991
1894 1996
1895 1899
1895 1911
1895 1919
1895 1926
1895 1954
1895 1959
1895 1978
1895 1980
1895 1988
1895 1989
1895 1990
1896 1905
1896 1921
1896 1933
1896 1947
1896 1958
1896 1974
1896 1978
1897 1905
1897 1908
1897 1911
1897 1913
1897 1918
1897 1931
1897 1932
1897 1933
1897 1934
1897 1959
1897 1960
1897 1992
1898 1911
1898 1919
1898 1926
1898 1932
1898 1943
1898 1955
1898 1964
1898 1991
1899 1915
1899 1934
1899 1938
1899 1964
1899 1985
1900 1928
1900 1932
1900 1943
1900 1948
1900 1970
1900 1976
1900 1982
1901 1920
1901 1924
1901 1935
1901 1942
1901 1944
1901 1962
1901 1967
1901 1971
1901 1981
1901 1988
1901 1999
1902 1943
1902 1952
1902 1957
1902 1962
1902 1968
1902 1986
1902 1993
1902 1994
1902 1997
1903 1920
1903 1927
1903 1935
1903 1943
1903 1949
1903 1951
1903 1954
1903 1998
1904 1906
1904 1907
1904 1922
1904 1927
1904 1943
1904 1953
1904 1980
1904 1981
1904 1995
1905 1908
1905 1913
1905 1915
1905 1929
1905 1935
1905 1953
1905 1955
1905 1958
1905 1965
1905 1973
1905 1976
1905 1980
1905 1996
1906 1909
1906 1911
1906 1916
1906 1920
1906 1939
1906 1942
1906 1946
1906 1958
1906 1973
1906 1977
1906 1978
1906 1984
1906 1999
1907 1931
1907 1948
1907 1950
1907 1960
1907 1966
1907 1983
1907 1984
1907 1988
1907 1989
1907 1994
1908 1912
1908 1941
1908 1969
1908 1970
1908 1977
1908 1979
1908 1982
1908 1993
1909 1925
1909 1938
1909 1968
1909 1984
1909 1988
1909 1992
1909 1995
1910 1917
1910 1918
1910 1925
1910 1936
1910 1942
1910 1946
1910 1964
1910 1967
1910 1974
1910 1983
1910 1986
1910 1991
1910 1993
1911 1931
1911 1933
1911 1940
1911 1949
1911 1953
1911 1974
1911 1977
1911 1984
1912 1919
1912 1922
1912 1924
1912 1925
1912 1930
1912 1935
1912 1943
1912 1946
1912 1962
1912 1964
1912 1984
1912 1989
1913 1915
1913 1918
1913 1920
1913 1941
1913 1957
1913 1975
1913 1988
1913 1993
1914 1955
1914 1973
1914 1982
1914 1991
1914 1993
1915 1929
1915 1931
1915 1939
1915 1947
1915 1955
1915 1962
1915 1963
1915 1968
1915 1970
1915 1975
1915 1981
1915 1986
1915 1997
1916 1944
1916 1948
1916 1968
1916 1975
1916 1978
1916 1981
1916 1998
1916 1999
1917 1923
1917 1926
1917 1933
1917 1939
1917 1952
1917 1973
1918 1933
1918 1940
1918 1958
1918 1961
1918 1969
1918 1999
1919 1920
1919 1937
1919 1942
1919 1943
1919 1979
1919 1982
1919 1984
1919 1999
1920 1932
1920 1947
1920 1990
1920 1996
1921 1935
1921 1939
1921 1942
1921 1955
1921 1959
1921 1963
1921 1969
1921 1975
1921 1976
1922 1924
1922 1927
1922 1932
1922 1938
1922 1940
1922 1943
1922 1956
1922 1971
1922 1977
1922 1988
1922 1994
1923 1924
1923 1926
1923 1927
1923 1933
1923 1936
1923 1942
1923 1948
1923 1979
1923 1985
1923 1997
1924 1939
1924 1943
1924 1960
1924 1962
1924 1965
1924 1966
1924 1967
1924 1969
1924 1973
1924 1989
1924 1996
1924 1997
1925 1928
1925 1931
1925 1958
1925 1966
1925 1972
1925 1985
1925 1989
1925 1992
1925 1995
1925 1998
1926 1941
1926 1986
1926 1991
1927 1935
1927 1938
1927 1950
1927 1954
1927 1956
1927 1961
1927 1967
1927 1969
1928 1945
1928 1968
1928 1970
1928 1971
1929 1935
1929 1971
1929 1975
1929 1983
1929 1991
1930 1940
1930 1945
1930 1954
1930 1960
1930 1967
1930 1976
1930 1981
1930 1989
1930 1996
1931 1948
1931 1952
1931 1959
1931 1964
1931 1980
1931 1990
1931 1991
1932 1936
1932 1939
1932 1946
1932 1952
1932 1953
1932 1956
1932 1965
1932 1972
1932 1990
1933 1965
1933 1987
1933 1990
1934 1946
1934 1948
1934 1952
1934 1960
1934 1971
1934 1972
1934 1981
1934 1992
1935 1947
1935 1970
1935 1974
1935 1988
1935 1990
1935 1993
1936 1952
1936 1953
1936 1973
1936 1987
1936 1990
1937 1943
1937 1960
1937 1961
1937 1964
1937 1968
1937 1973
1937 1975
1937 1980
1937 1981
1937 1992
1937 1994
1937 1999
1938 1955
1938 1971
1938 1975
1939 1979
1939 1994
1939 1996
1940 1951
1940 1953
1940 1956
1940 1963
1940 1973
1940 1985
1940 1988
1941 1942
1941 1943
1941 1947
1941 1953
1941 1981
1941 1983
1941 1985
1941 1990
1942 1944
1942 1949
1942 1958
1942 1968
1942 1992
1943 1951
1943 1955
1943 1974
1943 1978
1943 1993
1944 1958
1944 1964
1944 1975
1944 1977
1944 1981
1944 1985
1944 1993
1945 1959
1945 1962
1945 1965
1945 1967
1945 1975
1945 1984
1945 1988
1945 1997
1945 1998
1946 1978
1946 1987
1946 1989
1946 1997
1946 1998
1946 1999
1947 1959
1947 1971
1947 1977
1947 1997
1947 1998
1948 1959
1948 1960
1948 1962
1948 1986
1949 1952
1949 1961
1949 1966
1949 1969
1949 1982
1949 1986
1949 1989
1949 1998
1950 1954
1950 1964
1950 1976
1950 1983
1950 1993
1951 1959
1951 1968
1951 1985
1951 1987
1952 1963
1952 1970
1952 1977
1952 1985
1952 1987
1952 1991
1953 1963
1953 1968
1953 1990
1953 1998
1954 1956
1954 1965
1954 1966
1954 1980
1954 1981
1955 1956
1955 1961
1955 1970
1955 1977
1955 1981
1955 1985
1955 1987
1955 1989
1955 1992
1955 1996
1956 1961
1956 1968
1956 1970
1956 1975
1956 1999
1957 1978
1957 1979
1957 1991
1957 1992
1957 1996
1957 1999
1958 1962
1958 1967
1958 1969
1958 1971
1958 1977
1958 1987
1959 1975
1959 1976
1959 1982
1959 1988
1959 1991
1960 1969
1960 1971
1960 1972
1960 1981
1960 1987
1961 1962
1961 1974
1961 1975
1961 1989
1961 1993
1962 1970
1962 1982
1962 1998
1963 1964
1963 1967
1963 1977
1963 1990
1963 1994
1964 1983
1964 1987
1964 1994
1965 1967
1966 1994
1966 1995
1967 1994
1968 1972
1968 1978
1969 1970
1969 1979
1969 1992
1969 1998
1970 1986
1970 1997
1971 1972
1971 1973
1971 1982
1972 1974
1972 1978
1972 1983
1972 1995
1973 1990
1974 1980
1974 1985
1975 1987
1975 1992
1975 1998
1976 1978
1977 1979
1977 1997
1978 1993
1979 1996
1980 1994
1980 1997
1980 1998
1981 1995
1982 1989
1982 1993
1982 1997
1983 1993
1984 1987
1984 1998
1986 1987
1986 1995
1989 1996
1992 1996
1992 1998
1993 1997
1996 1998