0 9
0 14
0 24
0 32
0 34
0 42
0 64
0 70
0 76
0 84
0 96
0 104
0 109
0 113
0 115
0 117
0 121
0 124
0 129
0 131
0 133
0 152
0 153
0 173
0 185
0 192
0 194
0 195
1 15
1 20
1 39
1 43
1 46
1 56
1 57
1 67
1 72
1 75
1 88
1 105
1 114
1 136
1 140
1 143
1 146
1 154
1 159
1 169
1 170
2 24
2 30
2 45
2 53
2 61
2 63
2 102
2 118
2 122
2 131
2 135
2 147
2 162
2 173
2 174
2 180
2 197
3 15
3 42
3 48
3 61
3 62
3 68
3 70
3 94
3 95
3 116
3 127
3 129
3 163
3 164
3 170
3 174
3 180
3 189
3 203
3 323
4 8
4 9
4 11
4 14
4 21
4 24
4 27
4 31
4 53
4 60
4 61
4 72
4 79
4 87
4 94
4 110
4 114
4 119
4 144
4 145
4 146
4 158
4 161
4 166
4 174
4 197
5 12
5 18
5 27
5 36
5 37
5 41
5 47
5 79
5 88
5 101
5 133
5 143
5 147
5 165
5 186
5 189
5 944
6 12
6 20
6 37
6 40
6 42
6 53
6 58
6 66
6 87
6 88
6 93
6 117
6 120
6 122
6 133
6 140
6 155
6 163
6 169
6 181
6 184
6 185
6 188
6 334
7 15
7 47
7 52
7 86
7 107
7 115
7 136
7 137
7 150
7 162
7 174
7 180
7 194
7 196
8 36
8 37
8 54
8 59
8 60
8 72
8 83
8 97
8 102
8 105
8 114
8 119
8 126
8 132
8 133
8 151
8 152
8 156
8 163
8 174
8 178
8 187
8 190
9 22
9 40
9 50
9 61
9 64
9 72
9 74
9 79
9 80
9 89
9 96
9 104
9 112
9 122
9 127
9 151
9 152
9 153
9 154
9 159
9 168
9 261
10 14
10 18
10 41
10 55
10 67
10 68
10 69
10 84
10 106
10 122
10 134
10 179
10 191
10 193
10 486
11 15
11 28
11 33
11 49
11 64
11 67
11 73
11 80
11 82
11 88
11 92
11 105
11 124
11 139
11 141
11 145
11 150
11 156
11 174
11 187
11 198
12 19
12 31
12 32
12 72
12 78
12 82
12 106
12 116
12 117
12 121
12 127
12 128
12 132
12 133
12 136
12 141
12 144
12 174
12 181
12 182
12 183
12 197
12 198
12 276
13 24
13 70
13 73
13 76
13 82
13 89
13 91
13 95
13 100
13 117
13 123
13 126
13 150
13 156
13 164
13 169
13 183
13 189
13 199
13 822
14 22
14 32
14 39
14 42
14 43
14 49
14 50
14 59
14 67
14 94
14 98
14 100
14 107
14 110
14 145
14 160
14 174
14 180
14 181
14 183
14 644
15 29
15 34
15 41
15 61
15 67
15 81
15 106
15 120
15 140
15 144
15 148
15 151
15 153
15 160
15 193
15 784
16 34
16 50
16 59
16 69
16 72
16 104
16 105
16 108
16 123
16 128
16 130
16 134
16 135
16 136
16 137
16 138
16 148
16 164
16 173
16 174
16 187
17 19
17 21
17 72
17 79
17 84
17 87
17 90
17 102
17 114
17 115
17 122
17 129
17 135
17 152
17 162
17 187
17 238
18 26
18 31
18 40
18 55
18 57
18 61
18 70
18 87
18 92
18 104
18 107
18 122
18 130
18 132
18 142
18 146
18 189
18 352
19 26
19 53
19 55
19 60
19 68
19 73
19 85
19 101
19 107
19 133
19 135
19 136
19 140
19 147
19 150
19 197
20 35
20 41
20 73
20 84
20 128
20 149
20 153
20 156
20 159
20 161
20 163
20 164
20 177
20 184
20 191
20 375
21 32
21 38
21 50
21 52
21 61
21 79
21 80
21 84
21 89
21 102
21 107
21 125
21 138
21 151
21 165
21 180
22 27
22 28
22 34
22 40
22 44
22 59
22 63
22 72
22 75
22 87
22 112
22 129
22 134
22 150
22 153
22 154
22 165
22 191
22 195
22 357
22 471
22 520
23 51
23 64
23 84
23 88
23 89
23 103
23 105
23 119
23 128
23 138
23 140
23 141
23 146
23 163
23 179
23 839
24 31
24 44
24 46
24 51
24 53
24 57
24 60
24 63
24 83
24 88
24 112
24 119
24 123
24 150
24 158
24 191
24 586
25 38
25 42
25 63
25 65
25 93
25 110
25 114
25 119
25 120
25 123
25 130
25 138
25 139
25 154
25 169
25 172
25 184
25 186
25 190
25 263
26 28
26 29
26 31
26 38
26 42
26 65
26 105
26 125
26 135
26 144
26 154
26 161
26 166
26 167
26 171
26 175
26 191
27 43
27 44
27 45
27 59
27 71
27 80
27 81
27 108
27 120
27 132
27 133
27 146
27 152
27 170
27 185
27 441
27 534
27 934
28 51
28 63
28 100
28 128
28 168
28 174
28 175
28 190
29 31
29 35
29 47
29 57
29 76
29 87
29 88
29 96
29 113
29 151
29 164
29 165
29 167
29 184
29 973
30 41
30 55
30 71
30 103
30 124
30 126
30 145
30 160
30 162
30 170
30 171
30 190
30 220
31 33
31 74
31 95
31 99
31 105
31 107
31 109
31 112
31 121
31 127
31 130
31 135
31 141
31 152
31 157
31 166
31 167
31 181
32 36
32 40
32 62
32 76
32 83
32 88
32 95
32 97
32 108
32 119
32 120
32 122
32 128
32 162
32 180
32 182
32 189
33 40
33 44
33 52
33 61
33 62
33 67
33 73
33 76
33 87
33 88
33 111
33 118
33 119
33 120
33 124
33 134
33 143
33 151
33 156
33 168
33 171
33 185
33 192
33 197
33 198
33 329
34 50
34 54
34 70
34 106
34 112
34 115
34 132
34 133
34 140
34 148
34 174
34 181
34 183
34 185
34 186
34 193
34 197
34 198
35 48
35 51
35 61
35 63
35 92
35 94
35 112
35 113
35 122
35 125
35 127
35 131
35 138
35 141
35 163
36 39
36 53
36 55
36 63
36 69
36 73
36 78
36 79
36 84
36 86
36 91
36 94
36 114
36 146
36 154
36 163
36 170
36 173
36 183
36 891
37 46
37 78
37 80
37 96
37 111
37 114
37 140
37 152
37 153
37 155
37 167
37 168
37 174
37 534
38 39
38 43
38 46
38 65
38 75
38 78
38 79
38 88
38 95
38 115
38 119
38 120
38 133
38 140
38 142
38 158
38 163
38 196
38 199
39 53
39 55
39 64
39 68
39 74
39 76
39 85
39 89
39 93
39 96
39 97
39 112
39 117
39 129
39 135
39 141
39 156
39 168
39 169
39 174
39 181
40 56
40 57
40 72
40 85
40 89
40 100
40 102
40 105
40 108
40 115
40 127
40 148
40 149
40 153
40 154
40 165
40 170
41 42
41 43
41 66
41 67
41 104
41 105
41 111
41 123
41 132
41 143
41 151
41 153
42 47
42 83
42 91
42 115
42 125
42 127
42 128
42 139
42 165
42 169
42 176
42 178
42 186
42 199
43 55
43 62
43 69
43 90
43 100
43 102
43 103
43 112
43 120
43 126
43 150
43 151
43 155
43 159
43 165
43 173
43 193
43 504
44 52
44 57
44 71
44 74
44 83
44 90
44 93
44 98
44 133
44 136
44 142
44 148
44 159
44 169
44 180
44 181
44 185
45 56
45 69
45 74
45 81
45 86
45 89
45 97
45 117
45 121
45 138
45 161
45 167
45 184
45 189
45 194
46 70
46 71
46 104
46 111
46 120
46 125
46 126
46 128
46 129
46 140
46 147
46 152
46 166
46 167
46 194
46 198
47 48
47 81
47 88
47 91
47 102
47 118
47 120
47 136
47 151
47 168
47 182
47 193
48 56
48 60
48 65
48 68
48 69
48 79
48 84
48 90
48 94
48 97
48 101
48 105
48 113
48 121
48 123
48 148
48 157
48 164
48 196
48 197
49 57
49 63
49 87
49 89
49 100
49 128
49 130
49 143
49 144
49 154
49 159
49 160
49 174
49 196
49 197
49 270
49 397
50 57
50 59
50 67
50 71
50 77
50 88
50 92
50 96
50 130
50 139
50 151
50 158
50 159
50 162
50 163
50 442
51 52
51 57
51 69
51 83
51 93
51 116
51 127
51 134
51 146
51 167
51 180
51 191
51 192
52 53
52 71
52 80
52 93
52 99
52 109
52 116
52 139
52 141
52 146
52 154
52 161
52 182
52 235
53 68
53 72
53 84
53 93
53 108
53 109
53 111
53 112
53 117
53 129
53 138
53 139
53 166
53 168
53 175
53 183
53 188
54 93
54 106
54 109
54 111
54 125
54 139
54 140
54 142
54 144
54 146
54 158
54 168
54 169
54 177
54 186
54 191
55 63
55 75
55 88
55 100
55 104
55 111
55 114
55 135
55 153
55 164
55 180
55 191
55 198
55 408
55 718
56 68
56 78
56 85
56 87
56 98
56 160
56 172
56 197
57 66
57 67
57 72
57 84
57 88
57 95
57 111
57 128
57 137
57 145
57 152
57 158
57 160
57 168
57 184
57 189
57 672
58 59
58 60
58 69
58 75
58 86
58 105
58 123
58 127
58 151
58 161
58 164
58 167
58 180
58 199
58 919
59 73
59 81
59 89
59 97
59 98
59 122
59 125
59 140
59 147
59 149
59 160
59 166
59 193
59 197
60 66
60 80
60 85
60 94
60 110
60 124
60 141
60 152
60 168
60 195
60 871
61 72
61 76
61 77
61 82
61 86
61 95
61 98
61 105
61 108
61 115
61 120
61 126
61 151
61 159
61 164
61 165
61 169
61 175
61 188
61 198
62 69
62 78
62 79
62 83
62 109
62 118
62 123
62 138
62 142
62 152
62 153
62 160
62 181
62 445
63 64
63 65
63 66
63 76
63 77
63 81
63 94
63 105
63 133
63 150
63 153
63 158
63 178
63 188
63 190
64 89
64 94
64 100
64 107
64 116
64 118
64 126
64 140
64 164
64 170
64 186
64 189
64 290
64 669
65 73
65 82
65 95
65 99
65 100
65 105
65 122
65 132
65 140
65 143
65 148
65 155
65 158
65 166
65 171
65 175
65 182
65 187
65 492
66 70
66 71
66 77
66 97
66 104
66 110
66 129
66 130
66 133
66 162
66 171
66 177
66 178
66 198
66 431
67 70
67 82
67 99
67 105
67 116
67 134
67 141
67 163
67 167
67 178
67 182
67 184
68 82
68 95
68 102
68 105
68 140
68 145
68 159
68 166
68 180
68 181
68 190
69 73
69 129
69 152
69 160
69 164
69 180
69 181
69 183
69 187
69 199
70 85
70 92
70 96
70 111
70 114
70 135
70 163
70 985
71 76
71 81
71 97
71 98
71 102
71 129
71 134
71 146
71 152
71 156
71 163
71 182
71 193
71 376
71 805
72 95
72 114
72 120
72 127
72 133
72 134
72 142
72 151
72 187
72 199
73 76
73 81
73 82
73 124
73 129
73 131
73 137
73 138
73 140
73 145
73 149
73 158
73 159
73 170
73 173
73 174
73 180
73 183
73 188
73 191
74 83
74 85
74 94
74 97
74 98
74 100
74 105
74 126
74 130
74 139
74 146
74 160
74 166
74 169
74 178
74 189
74 540
74 969
75 95
75 103
75 122
75 143
75 158
75 160
75 167
75 177
75 183
75 186
75 188
75 189
75 191
75 195
75 627
75 729
76 87
76 90
76 97
76 107
76 120
76 125
76 130
76 138
76 144
76 149
76 161
76 188
76 398
76 822
76 876
77 92
77 107
77 114
77 118
77 127
77 149
77 151
77 157
77 168
77 183
78 86
78 94
78 106
78 114
78 117
78 132
78 140
78 147
78 150
78 154
78 164
78 165
78 167
78 171
78 198
78 199
78 230
78 406
78 643
79 106
79 119
79 134
79 166
79 168
79 173
79 178
79 181
79 183
79 633
80 97
80 104
80 132
80 147
80 162
80 167
80 175
80 181
80 198
80 360
81 83
81 92
81 111
81 118
81 124
81 136
81 143
81 146
81 150
81 151
81 154
81 161
81 189
82 101
82 105
82 112
82 131
82 158
82 184
82 194
82 196
82 199
83 92
83 102
83 112
83 141
83 142
83 151
83 169
83 184
83 189
83 811
84 102
84 123
84 127
84 129
84 153
84 161
84 167
84 169
84 175
84 177
84 194
84 808
85 93
85 104
85 119
85 148
85 160
85 177
85 181
85 182
85 183
85 191
85 197
85 198
85 608
86 91
86 97
86 103
86 108
86 109
86 119
86 122
86 131
86 145
86 149
86 158
86 163
86 170
86 171
86 175
86 181
86 183
86 189
86 192
86 248
87 99
87 102
87 112
87 113
87 126
87 178
87 179
87 181
87 182
87 194
87 879
88 105
88 122
88 129
88 141
88 150
88 151
88 157
88 705
88 853
89 97
89 98
89 101
89 120
89 122
89 152
89 157
89 162
89 165
89 182
89 190
90 105
90 114
90 118
90 119
90 120
90 129
90 133
90 149
90 161
90 167
90 180
91 125
91 130
91 141
91 159
91 162
91 169
91 192
91 198
92 98
92 111
92 117
92 137
92 144
92 162
92 170
92 178
92 187
92 188
92 197
92 269
93 98
93 100
93 103
93 107
93 127
93 135
93 140
93 142
93 155
93 157
93 172
93 182
93 193
93 199
93 456
94 119
94 141
94 149
94 174
94 188
94 194
94 478
95 96
95 99
95 109
95 119
95 124
95 144
95 145
95 147
95 148
95 172
95 191
95 193
95 275
95 368
95 446
95 936
96 106
96 111
96 112
96 116
96 119
96 137
96 152
96 153
96 167
96 169
96 172
96 175
96 176
96 189
96 898
97 101
97 109
97 121
97 131
97 135
97 141
97 146
97 148
97 172
97 173
97 199
97 303
97 680
98 112
98 125
98 128
98 132
98 133
98 143
98 148
98 161
98 199
99 107
99 113
99 143
99 148
99 151
99 153
99 165
99 179
99 184
99 188
99 192
99 196
100 136
100 168
100 175
100 195
100 541
100 802
101 111
101 120
101 135
101 157
102 105
102 110
102 127
102 138
102 145
102 148
102 153
102 159
102 172
102 179
102 191
102 195
102 199
103 104
103 139
103 159
104 108
104 118
104 127
104 129
104 148
104 172
104 179
104 190
105 107
105 120
105 136
105 137
105 148
105 175
105 180
105 190
105 192
106 110
106 117
106 133
106 138
106 149
106 150
106 155
106 170
106 180
106 313
107 117
107 135
107 139
107 144
107 162
107 165
107 173
107 175
107 185
107 188
108 114
108 122
108 138
108 147
108 155
108 158
108 159
108 162
108 171
108 183
108 185
109 119
109 120
109 121
109 132
109 139
109 143
109 146
109 155
109 166
109 183
110 114
110 117
110 123
110 132
110 144
110 147
110 154
110 158
110 162
110 179
110 181
110 184
111 120
111 123
111 144
111 153
111 157
111 164
111 169
111 174
111 184
111 185
111 195
111 196
111 381
112 118
112 135
112 139
112 142
112 148
112 152
112 157
112 162
112 166
112 183
112 187
112 193
113 116
113 121
113 126
113 141
113 144
113 146
113 148
113 158
113 168
113 170
113 178
113 183
113 186
114 120
114 143
114 144
114 150
114 153
114 166
114 191
114 196
114 198
114 399
114 704
115 123
115 135
115 137
115 146
115 150
115 154
115 156
115 185
115 189
115 196
115 486
115 665
116 117
116 123
116 126
116 160
116 165
116 195
116 638
117 124
117 164
117 170
117 172
117 188
117 190
117 191
117 555
117 919
118 134
118 136
118 137
118 143
118 146
118 149
118 151
118 159
118 171
118 196
118 198
119 128
119 134
119 151
119 168
119 177
119 237
120 133
120 138
120 139
120 148
120 168
120 176
120 180
120 185
120 198
120 594
120 991
121 124
121 158
121 161
121 164
121 167
121 174
121 179
121 184
121 190
121 193
121 351
122 124
122 126
122 132
122 136
122 161
122 162
122 167
122 187
122 193
123 125
123 147
123 190
124 131
124 133
124 145
124 161
124 171
124 176
124 187
125 133
125 140
125 142
125 159
125 165
125 173
125 181
125 182
125 187
125 196
125 201
126 131
126 142
126 150
126 152
126 160
126 168
126 178
127 129
127 139
127 172
127 197
127 199
128 141
128 149
128 177
128 180
128 189
128 190
128 192
128 332
128 547
129 139
129 153
129 155
129 169
129 184
130 147
130 153
130 154
130 159
130 166
130 194
130 691
130 845
131 135
131 139
131 149
131 173
131 176
131 177
131 179
131 180
131 184
131 193
132 133
132 150
132 169
132 176
132 181
132 188
133 135
133 136
133 137
133 139
133 165
133 184
133 186
133 187
133 188
133 189
133 194
134 150
134 154
134 164
134 185
134 186
134 190
134 197
134 722
135 147
135 158
135 161
135 168
136 158
136 163
136 164
136 165
136 180
136 181
136 189
136 190
136 196
136 576
137 145
137 172
137 179
137 884
138 147
138 149
138 152
138 154
138 186
138 965
138 966
139 154
139 162
139 169
139 585
139 877
140 147
140 154
140 166
140 170
140 194
140 195
140 199
140 247
141 147
141 148
141 150
141 157
141 160
141 171
141 175
141 199
142 168
142 185
142 192
142 277
142 680
143 150
143 162
143 165
143 167
143 168
143 171
143 177
143 178
143 187
143 196
144 173
144 177
144 179
144 186
144 194
145 153
145 163
145 171
145 183
145 184
145 322
145 986
146 169
146 177
146 179
146 185
146 195
146 765
147 182
147 184
147 192
148 155
148 161
148 169
148 175
148 176
148 183
148 190
148 198
149 151
149 159
149 160
149 177
149 179
149 870
150 151
150 152
150 173
150 174
150 182
150 189
150 190
150 326
151 164
151 186
151 368
151 942
151 987
152 161
152 167
152 170
152 171
152 476
153 156
153 180
153 183
153 187
153 190
153 195
153 470
154 180
154 186
155 167
155 189
156 164
156 174
156 178
156 183
156 188
156 194
157 163
157 166
157 185
157 190
157 445
157 966
158 166
158 168
158 171
158 179
158 191
158 195
159 164
159 169
159 174
160 167
160 176
160 190
160 194
160 197
160 238
160 354
160 396
161 179
161 186
161 188
161 199
161 820
162 172
162 174
162 178
163 169
163 172
163 195
164 176
164 185
164 197
164 199
165 174
165 179
166 175
166 194
166 205
166 753
167 169
167 175
167 184
167 191
168 174
168 219
169 181
169 199
169 337
170 189
170 190
171 172
171 174
171 196
172 182
172 183
172 193
172 543
173 181
173 195
173 196
174 199
174 596
175 179
175 184
175 194
175 195
176 182
176 191
176 193
176 194
176 199
176 473
176 887
177 178
177 185
177 188
178 188
178 194
178 198
178 494
179 196
179 197
179 198
180 918
182 187
182 188
184 792
185 189
185 195
185 330
185 382
186 906
187 188
187 194
187 832
188 193
188 234
189 190
189 664
190 667
191 562
192 968
193 194
193 227
194 196
195 196
197 325
197 628
199 268
200 208
200 223
200 240
200 246
200 251
200 254
200 281
200 310
200 312
200 327
200 329
200 340
200 346
200 350
200 354
200 355
200 374
200 382
200 385
200 895
200 939
201 246
201 247
201 261
201 262
201 272
201 283
201 289
201 308
201 310
201 320
201 323
201 333
201 336
201 352
201 362
201 368
201 372
202 203
202 222
202 260
202 262
202 294
202 295
202 300
202 301
202 305
202 313
202 320
202 324
202 349
202 353
202 366
202 378
202 390
202 849
203 207
203 211
203 213
203 226
203 232
203 241
203 267
203 276
203 300
203 303
203 304
203 309
203 311
203 315
203 328
203 352
203 363
203 374
203 382
203 389
203 839
204 222
204 223
204 234
204 238
204 246
204 251
204 264
204 275
204 278
204 279
204 296
204 298
204 306
204 333
204 341
204 343
204 347
204 354
204 373
204 376
204 379
204 385
204 388
204 394
204 397
205 235
205 254
205 258
205 259
205 275
205 277
205 281
205 305
205 330
205 333
205 349
205 351
205 364
205 374
205 388
205 394
205 398
206 214
206 226
206 233
206 247
206 251
206 257
206 260
206 286
206 309
206 316
206 329
206 332
206 353
206 364
206 373
206 397
206 399
207 210
207 215
207 216
207 217
207 221
207 230
207 243
207 245
207 263
207 275
207 302
207 310
207 315
207 317
207 337
207 356
207 362
207 363
207 389
208 216
208 220
208 235
208 236
208 239
208 240
208 242
208 261
208 270
208 271
208 277
208 284
208 286
208 291
208 314
208 329
208 346
208 358
208 363
209 212
209 238
209 259
209 261
209 263
209 268
209 269
209 290
209 291
209 301
209 304
209 314
209 323
209 329
209 330
209 339
209 343
209 344
209 347
209 367
209 374
209 378
209 379
209 381
209 389
209 414
210 225
210 262
210 265
210 267
210 270
210 282
210 300
210 302
210 355
210 359
210 363
210 377
210 378
210 389
210 393
211 223
211 234
211 241
211 259
211 262
211 265
211 266
211 270
211 271
211 272
211 273
211 285
211 295
211 303
211 305
211 311
211 335
211 386
211 389
211 398
211 477
212 218
212 230
212 247
212 250
212 264
212 271
212 292
212 301
212 314
212 344
212 348
212 351
212 372
212 375
212 378
212 387
212 397
213 218
213 225
213 233
213 235
213 244
213 266
213 283
213 285
213 287
213 291
213 297
213 308
213 311
213 320
213 332
213 337
213 354
213 366
213 375
213 378
214 216
214 217
214 234
214 253
214 255
214 263
214 266
214 273
214 283
214 295
214 337
214 338
214 339
214 355
214 357
214 392
214 394
215 223
215 231
215 235
215 240
215 253
215 256
215 265
215 268
215 291
215 293
215 297
215 299
215 301
215 302
215 317
215 321
215 333
215 336
215 340
215 351
215 368
215 396
215 397
215 805
216 222
216 236
216 240
216 245
216 253
216 268
216 289
216 311
216 337
216 338
216 341
216 356
216 372
216 380
216 385
216 392
216 971
217 232
217 245
217 246
217 251
217 256
217 258
217 262
217 265
217 291
217 293
217 296
217 299
217 303
217 330
217 339
217 359
217 382
218 222
218 235
218 239
218 256
218 283
218 292
218 293
218 298
218 300
218 303
218 323
218 330
218 339
218 343
218 355
218 368
218 375
218 381
218 382
218 392
219 223
219 233
219 254
219 269
219 276
219 288
219 291
219 293
219 295
219 337
219 348
219 349
219 351
219 353
219 357
219 393
219 396
220 223
220 238
220 240
220 252
220 291
220 295
220 297
220 301
220 304
220 326
220 331
220 360
220 365
220 371
220 383
220 391
221 223
221 233
221 234
221 244
221 249
221 288
221 295
221 316
221 317
221 318
221 339
221 362
221 377
221 395
222 242
222 248
222 264
222 267
222 273
222 274
222 279
222 286
222 288
222 299
222 303
222 317
222 340
222 347
222 364
222 372
222 380
222 397
223 226
223 227
223 234
223 242
223 249
223 269
223 275
223 279
223 285
223 309
223 322
223 324
223 335
223 345
223 351
223 356
223 364
223 366
223 367
223 370
223 376
223 381
223 385
223 386
223 669
223 842
224 240
224 241
224 243
224 256
224 266
224 271
224 277
224 286
224 311
224 340
224 344
224 353
224 377
224 383
224 394
224 395
224 436
225 238
225 246
225 269
225 299
225 303
225 315
225 325
225 347
225 353
225 356
225 359
225 364
225 372
225 381
225 385
225 386
225 388
225 392
225 397
225 814
226 232
226 257
226 260
226 263
226 266
226 274
226 284
226 292
226 305
226 340
226 397
227 241
227 250
227 252
227 274
227 279
227 280
227 289
227 297
227 330
227 339
227 354
227 358
227 361
227 365
227 382
228 232
228 240
228 249
228 263
228 267
228 271
228 272
228 276
228 320
228 326
228 331
228 333
228 341
228 345
228 351
228 368
228 372
228 382
228 386
228 395
228 931
229 234
229 249
229 260
229 268
229 276
229 277
229 280
229 291
229 301
229 308
229 312
229 313
229 318
229 326
229 328
229 329
229 330
229 339
229 354
229 362
229 364
229 366
229 387
229 392
229 395
229 398
229 578
229 621
229 872
230 231
230 238
230 239
230 240
230 250
230 251
230 261
230 263
230 277
230 283
230 289
230 296
230 297
230 303
230 323
230 324
230 335
230 356
230 358
230 362
230 392
230 397
230 427
230 621
231 235
231 255
231 258
231 310
231 314
231 335
231 342
231 353
231 356
231 370
231 372
231 373
231 375
232 238
232 243
232 244
232 256
232 260
232 261
232 267
232 272
232 274
232 277
232 279
232 288
232 292
232 313
232 317
232 345
232 351
232 371
232 373
232 374
232 377
232 398
233 252
233 258
233 259
233 262
233 265
233 268
233 277
233 294
233 297
233 304
233 312
233 332
233 333
233 356
233 364
233 385
233 386
234 245
234 248
234 259
234 279
234 285
234 289
234 302
234 322
234 337
234 347
234 365
234 371
234 373
234 388
235 237
235 241
235 252
235 275
235 279
235 280
235 281
235 293
235 300
235 311
235 337
235 352
235 360
235 367
235 372
235 380
235 391
235 397
236 239
236 242
236 245
236 263
236 277
236 278
236 293
236 294
236 297
236 303
236 313
236 315
236 332
236 345
236 348
236 349
236 350
236 354
236 380
236 387
236 390
236 395
236 397
236 583
237 239
237 242
237 243
237 247
237 263
237 265
237 276
237 286
237 294
237 297
237 302
237 315
237 322
237 333
237 342
237 351
237 363
237 368
237 753
238 241
238 251
238 253
238 256
238 261
238 276
238 281
238 285
238 293
238 303
238 320
238 340
238 341
238 348
238 353
238 365
238 376
238 382
238 383
238 396
238 398
238 642
239 246
239 259
239 266
239 289
239 301
239 308
239 327
239 331
239 334
239 339
239 365
239 370
239 396
239 410
240 287
240 292
240 308
240 309
240 314
240 320
240 321
240 352
240 353
240 360
240 376
240 385
241 243
241 255
241 262
241 267
241 269
241 270
241 304
241 310
241 331
241 333
241 339
241 349
241 365
241 367
241 387
241 388
241 394
241 395
241 398
242 251
242 253
242 254
242 268
242 271
242 276
242 292
242 310
242 315
242 327
242 341
242 357
242 362
242 365
242 368
242 375
242 385
242 601
243 255
243 256
243 258
243 267
243 272
243 299
243 364
243 369
243 387
243 399
244 245
244 250
244 262
244 283
244 287
244 291
244 298
244 335
244 351
244 384
245 258
245 269
245 273
245 282
245 320
245 328
245 333
245 340
245 354
245 368
245 380
245 739
246 258
246 265
246 286
246 291
246 292
246 302
246 306
246 307
246 312
246 313
246 317
246 324
246 335
246 349
246 354
246 355
246 361
246 373
246 382
246 395
246 681
246 868
247 259
247 264
247 277
247 304
247 332
247 335
247 339
247 342
247 343
247 346
247 355
247 360
247 363
247 387
248 259
248 271
248 284
248 288
248 294
248 298
248 314
248 316
248 321
248 326
248 329
248 333
248 337
248 357
248 380
248 384
248 389
249 253
249 256
249 259
249 301
249 304
249 311
249 327
249 341
249 342
249 344
249 346
249 347
249 349
249 353
249 358
249 371
249 374
249 376
249 380
249 387
250 256
250 259
250 283
250 284
250 285
250 292
250 294
250 303
250 311
250 331
250 350
250 361
250 365
250 366
250 372
250 373
250 381
250 384
250 386
250 391
251 264
251 330
251 331
251 333
251 356
251 368
251 758
252 258
252 275
252 282
252 283
252 298
252 315
252 318
252 322
252 335
252 353
252 359
252 361
252 362
252 363
252 368
252 369
252 370
252 375
252 378
252 379
252 397
252 715
253 284
253 285
253 298
253 301
253 304
253 311
253 313
253 318
253 321
253 327
253 334
253 344
253 349
253 351
253 356
253 372
253 374
253 377
254 269
254 274
254 277
254 286
254 291
254 297
254 306
254 319
254 341
254 347
254 362
254 363
254 364
254 378
254 389
254 390
254 396
254 398
255 256
255 262
255 269
255 291
255 312
255 342
255 344
255 354
255 359
255 362
255 374
255 375
255 383
255 395
255 812
255 889
256 280
256 287
256 305
256 310
256 314
256 323
256 329
256 340
256 357
256 373
256 375
256 394
256 396
257 284
257 286
257 306
257 307
257 323
257 324
257 328
257 334
257 345
257 352
257 358
257 371
257 372
257 374
257 379
257 401
258 259
258 268
258 281
258 282
258 286
258 300
258 304
258 313
258 341
258 345
258 347
258 350
258 355
258 357
258 380
258 390
259 265
259 287
259 291
259 293
259 297
259 306
259 318
259 324
259 356
259 358
259 371
259 385
259 392
259 736
260 262
260 278
260 279
260 285
260 288
260 297
260 309
260 315
260 320
260 324
260 340
260 343
260 352
260 359
260 363
260 395
261 271
261 272
261 279
261 283
261 292
261 309
261 315
261 316
261 323
261 327
261 330
261 332
261 344
261 349
261 354
261 355
261 364
261 373
261 381
261 388
261 393
261 396
261 399
262 273
262 278
262 281
262 291
262 295
262 317
262 324
262 361
262 378
262 460
263 267
263 279
263 287
263 289
263 303
263 304
263 313
263 319
263 328
263 352
263 356
263 370
263 384
263 386
264 277
264 289
264 299
264 304
264 318
264 321
264 325
264 345
264 346
264 349
264 371
264 372
264 379
264 394
265 268
265 277
265 298
265 300
265 313
265 322
265 334
265 340
265 377
265 387
265 388
265 396
265 473
266 272
266 285
266 293
266 301
266 310
266 320
266 323
266 326
266 329
266 346
266 349
266 355
266 357
266 361
266 391
267 268
267 269
267 277
267 278
267 294
267 305
267 315
267 316
267 317
267 322
267 323
267 335
267 350
267 355
267 363
267 395
267 704
268 271
268 285
268 287
268 292
268 294
268 326
268 330
268 339
268 342
268 349
268 389
268 395
268 918
268 935
269 295
269 309
269 310
269 312
269 328
269 337
269 346
269 361
270 274
270 278
270 287
270 288
270 307
270 312
270 316
270 318
270 329
270 355
270 365
270 374
270 878
271 284
271 286
271 295
271 299
271 307
271 309
271 319
271 324
271 328
271 354
271 372
271 375
271 378
271 399
271 430
272 280
272 285
272 295
272 314
272 331
272 336
272 346
272 350
272 356
272 370
272 373
272 375
272 392
272 934
273 305
273 327
273 334
273 344
273 382
274 281
274 290
274 292
274 293
274 300
274 301
274 312
274 317
274 329
274 331
274 335
274 362
274 377
274 393
274 398
275 280
275 289
275 293
275 318
275 321
275 322
275 345
275 356
275 357
275 375
275 380
275 392
275 397
275 717
276 278
276 287
276 290
276 296
276 299
276 301
276 304
276 314
276 336
276 341
276 348
276 352
276 395
276 483
276 644
276 784
277 280
277 281
277 285
277 297
277 300
277 304
277 313
277 317
277 329
277 337
277 338
277 345
277 372
277 374
277 395
278 289
278 292
278 308
278 342
278 358
278 359
279 290
279 304
279 320
279 324
279 328
279 335
279 346
279 348
279 354
279 355
279 380
279 387
279 390
279 394
279 396
279 512
279 995
280 309
280 321
280 383
280 391
280 398
281 284
281 285
281 300
281 303
281 324
281 337
281 339
281 351
281 352
281 353
281 359
281 360
281 364
281 386
281 392
281 686
281 750
282 332
282 342
282 346
282 367
282 396
282 397
283 309
283 323
283 326
283 327
283 336
283 340
283 342
283 345
283 348
283 352
283 377
283 378
283 387
283 642
284 290
284 298
284 302
284 317
284 318
284 321
284 349
284 350
284 358
284 359
284 361
284 373
284 383
284 385
284 388
284 394
284 395
285 297
285 298
285 308
285 314
285 329
285 336
285 346
285 349
285 355
285 373
285 380
285 774
285 914
286 292
286 295
286 298
286 299
286 309
286 313
286 319
286 320
286 325
286 327
286 340
286 344
286 350
286 351
286 357
286 364
286 365
286 369
286 372
286 374
286 376
286 377
286 384
286 388
286 789
287 299
287 300
287 308
287 316
287 322
287 332
287 342
287 356
287 357
287 362
287 385
287 386
288 293
288 309
288 326
288 338
288 350
288 352
288 363
288 375
288 377
288 382
288 385
288 397
289 310
289 312
289 323
289 340
289 346
289 350
289 384
289 390
289 394
289 395
289 397
290 297
290 301
290 304
290 309
290 318
290 319
290 342
290 344
290 349
290 352
290 356
290 357
290 364
290 371
290 383
290 390
290 448
291 315
291 337
291 348
291 349
291 382
291 392
291 681
292 298
292 309
292 336
292 338
292 340
292 346
292 364
292 379
292 394
293 320
293 343
293 361
293 387
293 392
293 393
293 396
293 750
293 870
293 958
294 305
294 307
294 317
294 320
294 325
294 343
294 349
294 361
294 368
294 380
294 381
294 387
295 301
295 303
295 317
295 319
295 320
295 323
295 353
295 354
295 357
295 384
295 388
295 397
295 897
295 976
296 300
296 302
296 308
296 309
296 316
296 327
296 333
296 344
296 363
296 369
296 376
296 943
297 310
297 312
297 320
297 323
297 335
297 338
297 342
297 349
297 350
297 368
297 370
297 372
297 373
297 375
297 380
297 384
297 389
297 395
298 302
298 310
298 327
298 334
298 341
298 348
298 371
298 385
298 386
298 701
298 811
299 307
299 312
299 315
299 331
299 346
299 366
299 392
300 324
300 327
300 333
300 379
300 380
300 386
300 387
300 388
300 390
301 312
301 317
301 337
301 338
301 341
301 361
301 373
301 374
301 375
301 383
301 388
301 390
301 395
301 399
301 602
302 304
302 308
302 320
302 344
302 346
302 353
302 354
302 378
302 392
302 395
302 398
303 313
303 316
303 342
303 348
303 349
303 353
303 374
303 375
303 390
303 393
303 398
304 342
304 346
304 355
304 358
304 362
304 363
304 380
304 913
305 316
305 320
305 357
305 374
305 381
305 383
305 393
305 399
306 311
306 349
306 357
306 381
306 385
306 389
306 398
306 747
307 323
307 327
307 351
307 370
307 390
307 392
307 402
308 331
308 336
308 337
308 348
308 351
308 356
308 385
308 390
308 926
309 313
309 316
309 320
309 329
309 340
309 354
309 355
309 375
309 388
309 398
310 311
310 314
310 315
310 318
310 320
310 349
310 356
310 359
310 367
310 374
310 504
311 345
311 350
311 355
311 357
311 361
311 375
311 379
311 382
311 394
311 624
312 315
312 317
312 323
312 326
312 330
312 334
312 337
312 352
312 364
312 396
312 397
312 833
313 317
313 322
313 338
313 343
313 350
313 352
313 359
313 372
313 384
313 389
313 390
313 880
314 317
314 320
314 321
314 335
314 337
314 340
314 343
314 364
314 370
314 383
314 392
314 897
315 327
315 337
315 338
315 341
315 345
315 354
315 356
315 363
315 373
315 375
315 378
315 382
315 384
315 396
316 320
316 321
316 329
316 331
316 340
316 370
316 392
316 399
316 493
317 325
317 351
317 352
317 361
317 362
317 378
317 383
317 932
318 369
318 371
318 372
318 382
318 391
318 486
319 321
319 335
319 339
319 362
319 363
319 381
319 385
319 390
319 837
320 326
320 360
320 364
320 365
320 389
320 394
320 496
321 327
321 333
321 334
321 348
321 349
321 357
321 363
321 366
321 373
321 380
321 384
321 394
321 399
321 644
321 908
322 332
322 345
322 359
322 368
322 370
322 381
322 397
322 430
322 742
323 340
323 344
323 365
323 375
323 388
323 849
324 336
324 337
324 357
324 362
324 364
324 367
324 373
324 375
325 326
325 350
325 355
325 361
325 369
325 380
325 386
325 513
326 327
326 333
326 337
326 341
326 346
326 347
326 352
326 360
326 361
326 375
326 383
326 386
326 396
326 399
327 333
327 334
327 347
327 348
327 365
327 385
327 388
327 393
327 556
328 330
328 356
328 371
328 383
328 386
328 387
328 807
329 334
329 339
329 342
329 367
329 371
329 381
329 387
329 393
329 686
330 333
330 340
330 355
330 356
330 358
330 359
330 374
330 395
330 397
331 343
331 358
331 364
331 369
331 373
331 382
331 390
331 399
332 356
332 357
332 363
332 366
332 378
332 399
332 667
332 697
333 334
333 339
333 342
333 345
333 350
333 365
333 368
333 369
333 370
333 373
333 391
333 538
334 338
334 355
334 364
334 384
334 399
335 337
335 351
335 363
335 374
335 390
335 395
335 397
335 662
336 344
336 370
336 395
336 396
336 916
337 357
337 372
337 383
337 391
337 397
338 353
338 355
338 356
338 359
338 362
338 379
338 380
338 384
339 349
339 364
339 368
339 370
339 379
339 391
339 393
340 350
340 359
340 367
340 368
340 399
341 345
341 347
341 357
341 365
341 385
341 390
341 396
341 652
342 348
342 352
342 353
342 361
342 390
342 539
342 803
343 349
343 354
343 358
343 376
343 382
343 385
344 365
344 368
344 376
344 381
344 395
345 355
345 361
345 375
345 392
345 394
346 355
346 385
346 394
346 398
346 503
346 576
347 348
347 378
348 353
348 376
348 378
348 399
348 989
349 358
349 383
349 389
349 390
349 391
349 395
349 399
349 702
350 357
350 381
351 353
351 357
351 378
351 380
351 397
352 372
352 377
352 380
352 386
352 397
352 572
353 375
353 384
353 819
353 993
354 357
354 360
354 361
354 392
354 394
355 363
355 366
355 373
355 376
355 378
355 389
356 369
356 386
356 389
356 399
356 858
357 363
357 367
357 386
357 399
358 365
358 371
358 388
358 399
358 849
359 371
359 379
359 380
359 381
359 386
360 362
360 371
360 383
360 384
360 389
361 365
361 373
361 379
361 395
362 378
362 379
362 383
363 366
363 370
363 371
363 389
364 381
364 384
364 398
364 725
365 375
365 377
366 379
366 387
366 389
366 415
367 382
367 389
367 399
367 553
368 376
368 380
369 370
369 376
369 383
369 489
369 624
370 380
370 384
370 386
370 395
371 378
371 379
371 391
371 397
371 672
372 381
372 389
372 393
372 394
372 990
373 383
375 379
375 391
376 378
376 380
377 617
377 630
378 387
379 381
379 386
379 583
380 393
381 382
381 387
382 658
382 929
382 946
383 388
383 389
383 577
383 715
384 387
384 388
384 390
384 391
384 398
384 656
384 964
385 386
385 389
385 393
385 394
385 395
387 388
387 399
387 436
390 587
390 752
391 942
392 399
392 625
392 955
394 552
394 729
394 811
395 396
396 971
398 867
400 427
400 476
400 503
400 520
400 526
400 532
400 545
400 550
400 557
400 559
400 571
400 573
400 593
400 598
400 857
400 982
401 417
401 434
401 464
401 474
401 475
401 476
401 478
401 487
401 506
401 507
401 526
401 537
401 538
401 539
401 540
401 552
401 572
401 588
401 589
402 413
402 428
402 445
402 455
402 467
402 468
402 477
402 484
402 494
402 515
402 518
402 521
402 542
402 546
402 549
402 553
402 566
402 567
402 568
402 576
402 581
402 582
402 599
403 407
403 422
403 438
403 460
403 461
403 464
403 490
403 493
403 501
403 507
403 518
403 531
403 537
403 558
403 566
403 585
404 406
404 423
404 425
404 429
404 432
404 452
404 455
404 463
404 468
404 484
404 497
404 518
404 523
404 526
404 542
404 561
404 576
404 580
404 582
404 587
404 588
404 590
404 595
405 415
405 468
405 476
405 482
405 483
405 514
405 533
405 538
405 542
405 553
405 558
405 561
405 564
405 565
405 576
405 578
405 579
405 582
405 590
405 594
405 595
406 412
406 415
406 419
406 426
406 432
406 458
406 481
406 484
406 490
406 504
406 506
406 514
406 516
406 535
406 546
406 548
406 564
406 569
406 589
406 590
406 591
406 596
406 598
406 599
406 642
407 408
407 411
407 413
407 427
407 455
407 472
407 475
407 486
407 491
407 496
407 510
407 561
407 592
407 595
407 695
408 409
408 417
408 423
408 440
408 442
408 469
408 478
408 483
408 487
408 490
408 496
408 498
408 514
408 521
408 536
408 543
408 547
408 561
408 562
408 576
408 577
408 583
408 588
408 589
408 593
408 651
409 433
409 434
409 449
409 451
409 454
409 478
409 479
409 491
409 494
409 508
409 514
409 517
409 525
409 535
409 544
409 549
409 567
409 568
409 578
409 581
409 586
409 587
410 416
410 431
410 450
410 455
410 471
410 477
410 479
410 491
410 493
410 502
410 507
410 525
410 535
410 541
410 546
410 548
410 555
410 556
410 569
410 578
410 579
410 586
411 417
411 418
411 420
411 431
411 432
411 441
411 452
411 493
411 541
411 557
411 558
411 560
411 565
411 570
411 584
411 863
412 431
412 439
412 440
412 445
412 472
412 476
412 477
412 483
412 491
412 495
412 502
412 506
412 523
412 525
412 534
412 540
412 548
412 557
412 587
412 864
412 932
413 422
413 482
413 491
413 492
413 493
413 508
413 519
413 536
413 542
413 566
413 567
413 572
414 428
414 433
414 454
414 458
414 470
414 501
414 502
414 511
414 526
414 534
414 535
414 546
414 579
414 582
414 583
414 598
415 421
415 430
415 450
415 453
415 466
415 483
415 486
415 487
415 495
415 500
415 510
415 511
415 513
415 517
415 529
415 534
415 544
415 549
415 551
415 573
415 574
415 578
415 590
415 597
416 420
416 431
416 454
416 462
416 469
416 472
416 477
416 490
416 504
416 537
416 544
416 545
416 553
416 558
416 563
416 578
416 582
416 589
416 625
417 418
417 431
417 432
417 446
417 470
417 471
417 477
417 480
417 482
417 486
417 494
417 501
417 508
417 512
417 517
417 519
417 522
417 537
417 567
417 576
417 581
417 586
417 718
418 430
418 436
418 443
418 449
418 482
418 499
418 514
418 520
418 553
418 570
418 594
418 599
419 426
419 462
419 466
419 487
419 527
419 531
419 539
419 570
419 587
419 589
419 591
420 421
420 426
420 442
420 443
420 459
420 499
420 512
420 528
420 541
420 550
420 567
420 580
420 592
420 595
421 433
421 445
421 447
421 449
421 506
421 531
421 554
421 574
421 577
421 578
421 589
421 591
421 637
422 439
422 446
422 449
422 451
422 467
422 476
422 484
422 495
422 497
422 528
422 535
422 539
422 542
422 553
422 578
422 586
422 587
422 590
422 763
423 438
423 455
423 462
423 477
423 479
423 487
423 496
423 524
423 531
423 547
423 553
423 558
424 426
424 431
424 435
424 443
424 448
424 471
424 475
424 486
424 492
424 501
424 512
424 520
424 523
424 535
424 557
424 571
424 586
425 426
425 428
425 475
425 484
425 490
425 492
425 504
425 507
425 521
425 536
425 543
425 544
425 565
425 582
425 596
426 433
426 441
426 443
426 446
426 464
426 496
426 497
426 510
426 516
426 518
426 541
426 568
426 574
426 575
426 596
426 818
427 428
427 432
427 433
427 444
427 464
427 488
427 502
427 507
427 516
427 528
427 534
427 536
427 546
427 589
427 591
427 598
428 430
428 444
428 456
428 461
428 482
428 486
428 490
428 492
428 498
428 502
428 512
428 526
428 527
428 538
428 589
428 593
428 596
428 597
428 949
429 460
429 461
429 466
429 468
429 483
429 485
429 509
429 511
429 514
429 530
429 547
429 550
429 553
429 569
429 571
429 573
430 448
430 453
430 465
430 479
430 481
430 492
430 503
430 504
430 507
430 509
430 510
430 515
430 517
430 523
430 537
430 555
430 560
430 561
430 565
430 566
430 571
430 583
430 588
430 599
431 443
431 469
431 503
431 510
431 512
431 520
431 521
431 525
431 536
431 552
431 558
431 570
431 571
431 572
431 576
431 578
432 461
432 462
432 465
432 466
432 483
432 492
432 559
432 563
432 566
432 574
432 575
432 576
432 579
432 585
432 598
432 599
433 445
433 469
433 470
433 472
433 474
433 481
433 483
433 494
433 508
433 520
433 539
433 564
433 596
433 599
433 788
434 439
434 448
434 473
434 477
434 489
434 510
434 516
434 527
434 544
434 545
434 575
434 577
434 586
434 592
434 595
434 596
434 597
435 449
435 450
435 466
435 467
435 513
435 541
435 543
435 552
435 567
435 576
436 453
436 454
436 458
436 486
436 497
436 507
436 535
436 545
436 550
436 552
436 555
436 569
436 577
436 578
436 744
437 447
437 458
437 474
437 479
437 501
437 511
437 514
437 521
437 536
437 555
437 563
437 571
437 578
437 586
437 587
437 589
437 598
437 859
438 453
438 458
438 459
438 461
438 467
438 468
438 469
438 475
438 479
438 485
438 508
438 534
438 571
438 572
438 576
438 578
438 579
438 584
438 598
439 444
439 451
439 455
439 470
439 491
439 492
439 496
439 511
439 535
439 574
439 585
440 478
440 503
440 504
440 507
440 508
440 530
440 551
440 567
440 571
440 584
440 586
441 452
441 462
441 469
441 492
441 494
441 513
441 517
441 524
441 529
441 540
441 544
441 554
441 570
441 576
441 578
441 591
441 835
442 457
442 475
442 485
442 487
442 492
442 499
442 538
442 570
442 585
442 592
443 454
443 457
443 459
443 463
443 464
443 475
443 476
443 479
443 492
443 493
443 499
443 501
443 502
443 509
443 516
443 521
443 529
443 531
443 540
443 546
443 556
443 564
443 994
444 448
444 486
444 491
444 498
444 507
444 512
444 521
444 526
444 546
444 548
444 551
444 558
444 573
444 574
444 586
444 592
444 595
445 447
445 449
445 467
445 475
445 478
445 486
445 496
445 505
445 510
445 512
445 519
445 565
445 569
445 574
445 597
446 450
446 454
446 464
446 475
446 480
446 481
446 517
446 540
446 541
446 559
446 563
446 566
446 574
446 591
447 460
447 463
447 471
447 482
447 483
447 495
447 511
447 533
447 550
447 551
447 588
447 590
448 457
448 462
448 472
448 481
448 486
448 488
448 494
448 497
448 520
448 527
448 558
448 560
448 586
448 588
449 452
449 457
449 463
449 469
449 470
449 489
449 521
449 525
449 534
449 560
449 562
449 585
449 591
450 452
450 461
450 478
450 483
450 487
450 496
450 504
450 521
450 532
450 537
450 544
450 548
450 556
450 703
450 988
451 454
451 456
451 483
451 504
451 508
451 528
451 530
451 532
451 539
451 542
451 561
451 574
451 579
451 699
452 466
452 478
452 480
452 486
452 497
452 515
452 519
452 522
452 531
452 545
452 567
452 569
453 467
453 482
453 490
453 491
453 502
453 526
453 555
453 556
453 560
453 571
453 572
453 586
453 591
454 472
454 474
454 475
454 479
454 489
454 512
454 519
454 520
454 524
454 526
454 560
454 579
454 596
455 456
455 472
455 476
455 482
455 483
455 486
455 487
455 500
455 514
455 518
455 551
455 574
455 593
456 464
456 465
456 471
456 472
456 482
456 486
456 492
456 499
456 506
456 522
456 525
456 548
456 558
456 573
457 461
457 465
457 467
457 473
457 476
457 482
457 490
457 524
457 527
457 531
457 535
457 548
457 550
457 553
457 564
457 567
457 578
457 582
457 591
457 592
458 459
458 474
458 475
458 485
458 492
458 504
458 510
458 512
458 513
458 534
458 542
458 560
458 564
458 572
458 583
458 658
458 984
459 483
459 499
459 500
459 512
459 532
459 544
459 557
459 579
459 585
459 595
460 474
460 482
460 486
460 489
460 507
460 516
460 519
460 533
460 551
460 560
460 572
460 580
460 591
460 597
461 470
461 474
461 494
461 495
461 497
461 500
461 511
461 512
461 517
461 527
461 535
461 544
461 545
461 567
461 581
461 584
462 466
462 483
462 484
462 488
462 516
462 517
462 535
462 539
462 541
462 553
462 557
462 565
462 572
462 576
462 580
462 593
462 594
462 985
463 466
463 468
463 479
463 488
463 496
463 511
463 539
463 573
463 584
463 587
463 592
463 593
463 651
464 466
464 476
464 499
464 523
464 531
464 533
464 541
464 562
464 565
464 587
465 467
465 478
465 481
465 497
465 500
465 506
465 549
465 550
465 564
465 568
465 578
465 582
466 469
466 480
466 483
466 493
466 510
466 519
466 521
466 540
466 546
466 588
467 477
467 488
467 495
467 518
467 519
467 549
467 550
467 562
467 567
467 571
467 579
467 592
468 472
468 476
468 485
468 495
468 510
468 512
468 527
468 534
468 540
468 548
468 551
468 567
468 577
468 588
468 590
468 595
468 692
469 485
469 488
469 512
469 520
469 530
469 539
469 550
469 558
469 563
469 574
469 582
469 586
469 597
470 472
470 497
470 520
470 526
470 549
470 557
470 597
470 630
471 486
471 508
471 518
471 547
471 552
471 578
471 595
472 485
472 499
472 501
472 510
472 512
472 513
472 515
472 525
472 546
472 564
472 571
472 584
472 817
473 499
473 524
473 528
473 533
473 557
473 564
473 575
473 578
473 597
473 748
473 839
474 503
474 534
474 543
474 544
474 563
474 572
474 577
474 586
474 669
475 488
475 517
475 523
475 526
475 533
475 546
475 550
475 558
475 563
475 571
475 572
475 585
475 586
475 590
475 592
476 486
476 498
476 510
476 524
476 562
476 566
476 576
476 581
477 515
477 529
477 530
477 531
477 538
477 548
477 563
477 575
477 578
477 581
477 590
478 507
478 509
478 511
478 512
478 515
478 531
478 535
478 537
478 538
478 539
478 543
478 548
478 558
478 572
478 580
478 595
478 925
479 494
479 504
479 527
479 550
479 552
479 554
479 561
479 576
479 586
479 597
479 696
480 497
480 499
480 501
480 536
480 539
480 556
480 558
480 562
480 564
480 566
480 569
480 570
480 580
480 595
480 599
481 509
481 540
481 541
481 548
481 550
481 551
481 574
481 575
481 576
481 582
481 583
481 588
481 599
482 486
482 490
482 502
482 512
482 516
482 526
482 530
482 540
482 542
482 547
482 556
482 572
482 573
482 892
483 488
483 490
483 494
483 496
483 516
483 519
483 541
483 551
483 553
483 558
483 559
483 572
483 579
483 589
483 594
484 495
484 499
484 500
484 510
484 511
484 520
484 546
484 553
484 558
484 568
484 576
484 580
484 589
484 594
484 595
484 633
484 875
485 486
485 498
485 503
485 515
485 517
485 531
485 536
485 540
485 577
485 579
485 586
485 589
485 591
485 597
485 599
485 966
486 489
486 494
486 506
486 522
486 530
486 536
486 567
486 571
486 581
486 582
486 587
487 489
487 496
487 499
487 515
487 517
487 524
487 531
487 554
487 583
487 588
487 836
487 914
488 492
488 516
488 528
488 530
488 547
488 556
488 566
488 572
488 575
488 584
488 597
488 599
488 938
489 503
489 510
489 511
489 530
489 535
489 538
489 559
489 564
489 600
490 500
490 511
490 516
490 521
490 527
490 531
490 552
490 560
490 566
490 577
490 584
490 596
490 597
491 509
491 533
491 534
491 535
491 548
491 553
491 564
491 568
491 576
491 586
491 587
491 591
491 784
492 502
492 525
492 539
492 542
492 545
492 548
492 567
492 576
492 584
492 830
493 498
493 500
493 520
493 530
493 534
493 547
493 573
494 500
494 509
494 518
494 525
494 532
494 551
494 555
494 565
494 571
495 509
495 513
495 536
495 537
495 549
495 553
495 556
495 567
495 581
495 585
495 587
495 588
496 505
496 514
496 520
496 524
496 533
496 544
496 559
496 574
496 675
496 708
497 499
497 501
497 503
497 504
497 515
497 517
497 522
497 524
497 533
497 550
497 563
497 579
497 581
497 593
498 523
498 541
498 543
498 560
498 584
498 596
498 702
499 502
499 503
499 506
499 530
499 535
499 542
499 565
499 574
499 579
499 587
499 593
499 924
500 513
500 529
500 534
500 537
500 546
500 554
500 567
500 570
500 585
500 586
500 589
500 590
500 591
500 592
500 596
501 516
501 526
501 528
501 537
501 543
501 548
501 549
501 563
501 576
501 578
501 579
501 581
501 583
501 590
501 595
502 505
502 550
502 554
502 559
502 566
502 585
502 588
503 506
503 509
503 517
503 532
503 539
503 554
503 570
503 574
503 587
503 591
504 512
504 518
504 521
504 532
504 575
504 595
504 783
504 854
505 523
505 527
505 531
505 536
505 549
505 551
505 555
505 557
505 562
505 575
505 578
505 596
506 521
506 535
506 536
506 539
506 541
506 542
506 556
506 559
506 563
506 568
506 572
506 576
506 590
507 509
507 511
507 526
507 541
507 552
507 553
507 560
507 576
508 511
508 524
508 531
508 536
508 538
508 555
508 559
508 566
508 567
508 571
508 595
509 519
509 527
509 529
509 540
509 545
509 546
509 573
509 581
509 587
509 599
510 517
510 546
510 558
510 565
510 566
510 573
510 583
510 589
510 593
510 594
510 596
510 644
511 515
511 527
511 528
511 533
511 541
511 543
511 564
511 571
511 578
511 584
511 593
511 597
512 524
512 526
512 530
512 535
512 541
512 551
512 561
512 573
512 585
512 591
512 597
512 598
513 515
513 531
513 546
513 549
513 555
513 572
513 573
513 581
513 599
513 844
514 516
514 520
514 521
514 549
514 560
514 575
514 578
514 579
514 587
514 594
514 643
514 745
515 525
515 549
515 558
515 572
515 575
515 577
515 580
515 586
516 518
516 528
516 531
516 576
516 584
516 590
516 594
516 595
516 596
516 599
516 833
517 519
517 544
517 550
517 555
517 563
517 573
517 576
517 578
517 589
517 596
517 599
518 525
518 535
518 547
518 550
518 561
518 569
518 588
518 599
519 529
519 531
519 547
519 551
519 585
519 589
519 590
519 593
519 595
520 538
520 543
520 554
520 597
520 867
521 527
521 536
521 538
521 541
521 561
521 570
521 597
521 598
522 539
522 562
522 565
522 572
522 580
522 599
523 528
523 557
523 560
523 567
523 576
523 585
523 653
524 538
524 553
524 555
524 568
525 538
525 560
525 590
525 597
525 956
526 529
526 530
526 536
526 541
526 548
526 591
526 592
526 670
527 535
527 551
527 569
527 571
527 582
527 595
527 596
527 610
528 539
528 555
528 564
528 578
528 587
528 598
529 536
529 539
529 541
529 544
529 554
529 566
529 569
529 576
529 587
529 591
529 595
529 596
530 533
530 542
530 544
530 578
530 592
531 537
531 561
531 599
532 535
532 537
532 545
532 562
532 567
532 575
532 581
532 587
533 556
533 558
533 576
533 585
533 591
533 592
533 594
534 537
534 540
534 547
534 548
534 549
534 555
534 556
534 582
534 589
535 538
535 539
535 542
535 544
535 545
535 549
535 558
535 571
535 575
535 599
536 549
536 555
536 565
536 590
536 596
536 597
536 598
536 934
537 553
537 564
537 565
537 577
537 579
537 583
537 997
538 546
538 550
538 570
538 571
538 572
538 574
538 575
538 577
538 582
538 585
538 586
538 593
538 983
539 541
539 552
539 560
539 562
539 584
539 590
539 594
540 565
540 566
540 579
540 582
540 583
540 593
540 733
541 554
541 566
541 568
541 584
541 586
541 587
541 590
541 591
541 593
542 545
542 548
542 569
542 583
542 591
542 595
543 545
543 548
543 550
543 559
543 576
543 588
543 595
543 599
544 549
544 553
544 565
544 567
544 577
544 587
544 615
545 560
545 566
545 567
545 577
545 581
545 585
545 587
546 547
546 558
546 567
546 568
546 579
546 581
546 588
546 592
546 728
547 564
547 573
547 578
547 579
547 599
547 706
548 550
548 551
548 564
548 587
548 589
548 592
549 550
549 560
549 563
549 582
549 592
550 560
550 568
550 574
550 589
550 593
550 931
550 934
551 557
551 563
551 579
551 587
551 590
551 595
551 598
552 565
552 577
552 595
552 599
553 574
553 588
553 598
554 570
554 593
554 961
555 583
555 593
555 596
556 561
556 578
556 579
556 590
556 594
557 559
557 561
557 569
557 598
558 572
558 579
558 586
558 587
558 589
558 591
558 593
558 594
558 599
559 575
559 576
559 577
559 585
559 587
560 580
560 593
560 690
561 570
561 574
561 577
561 591
561 599
562 578
562 587
562 593
562 594
562 596
563 576
563 589
563 595
563 722
564 580
564 583
564 592
564 599
565 577
565 582
565 583
565 597
565 599
566 571
566 583
566 587
566 589
566 592
566 595
567 568
567 578
567 580
567 587
568 572
568 575
568 587
569 571
570 575
570 577
570 588
570 693
571 584
572 575
572 587
572 588
573 575
573 583
573 590
573 593
573 809
574 577
574 620
575 597
575 747
576 577
576 581
576 582
576 793
577 578
577 582
577 670
577 839
578 587
578 593
579 582
579 586
579 595
579 848
580 582
580 595
580 597
580 599
581 587
582 583
582 586
582 594
582 598
583 585
583 621
583 849
584 587
584 604
587 713
588 594
588 620
589 598
591 594
595 924
596 705
596 912
600 619
600 621
600 639
600 660
600 670
600 687
600 688
600 691
600 712
600 723
600 724
600 728
600 731
600 734
600 749
600 751
600 760
600 762
600 790
600 791
600 795
600 796
601 602
601 615
601 616
601 630
601 670
601 682
601 686
601 703
601 709
601 716
601 721
601 727
601 731
601 760
601 765
601 770
601 787
601 791
602 607
602 623
602 624
602 626
602 628
602 629
602 636
602 637
602 651
602 659
602 660
602 662
602 663
602 673
602 728
602 734
602 736
602 737
602 745
602 750
602 753
602 763
602 769
602 791
602 792
602 859
603 614
603 616
603 621
603 635
603 641
603 643
603 657
603 659
603 718
603 723
603 725
603 728
603 732
603 734
603 738
603 741
603 764
603 769
603 778
603 793
604 635
604 650
604 659
604 665
604 670
604 671
604 679
604 688
604 702
604 714
604 724
604 727
604 735
604 751
604 758
604 793
604 798
605 607
605 608
605 612
605 621
605 634
605 639
605 640
605 641
605 656
605 668
605 674
605 679
605 681
605 693
605 720
605 723
605 731
605 737
605 741
605 756
605 758
605 760
605 763
605 770
605 781
605 786
605 788
605 794
605 795
605 799
606 623
606 642
606 644
606 661
606 665
606 676
606 680
606 687
606 688
606 705
606 710
606 720
606 732
606 734
606 748
606 750
606 754
606 757
606 763
606 764
606 781
606 784
606 797
607 633
607 688
607 693
607 695
607 698
607 703
607 706
607 715
607 716
607 747
607 751
607 762
607 769
607 772
607 776
607 777
607 784
607 788
608 611
608 612
608 614
608 651
608 659
608 661
608 678
608 711
608 718
608 722
608 739
608 743
608 744
608 761
608 762
608 775
608 783
609 632
609 639
609 654
609 659
609 666
609 705
609 715
609 730
609 766
609 778
609 780
609 794
610 634
610 646
610 675
610 691
610 695
610 703
610 709
610 723
610 732
610 750
610 771
610 784
610 799
611 620
611 646
611 651
611 673
611 674
611 678
611 693
611 694
611 700
611 704
611 711
611 732
611 740
611 765
611 777
611 787
611 792
611 967
612 621
612 623
612 625
612 634
612 647
612 651
612 654
612 656
612 659
612 672
612 674
612 677
612 681
612 699
612 729
612 741
612 744
612 748
612 752
612 763
612 767
612 768
612 796
612 797
613 627
613 632
613 633
613 638
613 661
613 664
613 665
613 666
613 673
613 689
613 700
613 707
613 709
613 710
613 727
613 735
613 738
613 757
613 761
613 775
613 793
614 624
614 636
614 637
614 643
614 647
614 648
614 651
614 679
614 688
614 693
614 697
614 718
614 727
614 738
614 742
614 753
614 768
614 781
614 785
614 789
614 797
614 926
615 655
615 663
615 681
615 684
615 692
615 725
615 739
615 747
615 764
615 789
615 854
616 620
616 632
616 648
616 652
616 669
616 674
616 682
616 691
616 698
616 707
616 709
616 710
616 723
616 726
616 732
616 733
616 739
616 740
616 742
616 743
616 749
616 750
616 754
616 777
617 619
617 634
617 638
617 641
617 646
617 650
617 675
617 682
617 687
617 708
617 713
617 716
617 717
617 726
617 727
617 735
617 755
617 756
617 764
617 771
617 773
617 774
617 782
617 788
617 793
618 630
618 635
618 657
618 660
618 667
618 670
618 691
618 701
618 717
618 718
618 722
618 743
618 753
618 760
618 769
618 780
618 791
619 633
619 635
619 648
619 650
619 658
619 673
619 677
619 702
619 711
619 720
619 730
619 740
619 741
619 749
619 760
619 771
620 642
620 643
620 646
620 649
620 678
620 694
620 711
620 713
620 729
620 732
620 745
620 748
620 764
620 775
620 782
620 787
620 793
621 653
621 664
621 665
621 669
621 677
621 679
621 680
621 681
621 682
621 694
621 695
621 699
621 703
621 711
621 717
621 723
621 731
621 735
621 741
621 749
621 752
621 759
621 763
621 769
621 777
621 780
621 789
621 791
621 793
622 628
622 629
622 634
622 644
622 655
622 670
622 696
622 707
622 728
622 743
622 752
622 756
622 760
622 771
622 772
622 776
622 779
622 797
623 631
623 648
623 665
623 696
623 697
623 703
623 724
623 730
623 737
623 742
623 763
623 775
623 777
623 796
623 798
624 639
624 662
624 666
624 667
624 682
624 687
624 693
624 696
624 705
624 723
624 725
624 738
624 749
624 750
624 755
624 759
624 763
624 772
624 773
624 791
625 642
625 648
625 650
625 657
625 668
625 700
625 709
625 710
625 725
625 739
625 751
625 758
625 776
626 651
626 662
626 667
626 672
626 680
626 686
626 687
626 698
626 712
626 713
626 717
626 740
626 741
626 766
626 776
626 781
626 795
626 796
627 631
627 633
627 644
627 653
627 663
627 666
627 668
627 671
627 673
627 674
627 677
627 685
627 699
627 717
627 718
627 727
627 729
627 733
627 776
627 778
627 794
628 643
628 649
628 661
628 662
628 672
628 687
628 699
628 718
628 736
628 738
628 744
628 748
628 756
628 758
628 761
628 781
628 872
629 644
629 645
629 673
629 679
629 684
629 688
629 691
629 702
629 715
629 718
629 735
629 736
629 738
629 753
629 757
629 760
629 782
629 785
629 799
630 637
630 656
630 680
630 684
630 686
630 692
630 727
630 734
630 735
630 744
630 767
630 775
630 779
630 780
630 782
630 786
630 795
630 973
631 641
631 642
631 648
631 663
631 684
631 691
631 701
631 715
631 734
631 741
631 749
631 754
631 775
631 778
631 783
631 786
631 792
631 799
632 640
632 654
632 656
632 669
632 680
632 689
632 697
632 703
632 722
632 726
632 728
632 734
632 738
632 739
632 758
632 761
632 768
633 636
633 656
633 691
633 697
633 716
633 763
633 766
633 778
633 898
633 926
634 648
634 649
634 654
634 666
634 718
634 734
634 736
634 737
634 744
634 762
634 767
634 778
634 782
634 796
635 649
635 672
635 693
635 712
635 717
635 732
635 735
635 752
635 758
635 765
635 769
635 771
635 779
635 781
635 783
635 791
636 659
636 668
636 675
636 681
636 765
636 771
636 783
637 656
637 659
637 688
637 709
637 711
637 722
637 763
637 768
637 771
637 778
638 648
638 650
638 654
638 665
638 682
638 691
638 696
638 713
638 733
638 744
638 759
638 769
638 771
638 775
638 798
639 640
639 647
639 657
639 658
639 663
639 666
639 685
639 686
639 700
639 704
639 714
639 721
639 735
639 742
639 758
639 762
639 765
639 767
639 768
639 780
639 783
639 789
639 792
640 647
640 662
640 673
640 682
640 686
640 689
640 703
640 718
640 737
640 738
640 746
640 749
640 752
640 759
640 777
641 645
641 657
641 675
641 678
641 695
641 702
641 715
641 723
641 727
641 729
641 731
641 734
641 749
641 778
641 779
641 791
641 795
641 845
642 664
642 666
642 688
642 692
642 702
642 703
642 721
642 727
642 728
642 733
642 734
642 742
642 754
642 759
642 761
642 763
642 772
642 787
643 653
643 661
643 684
643 685
643 686
643 693
643 718
643 719
643 725
643 740
643 742
643 780
643 784
643 791
643 797
644 660
644 663
644 674
644 681
644 703
644 719
644 725
644 733
644 745
644 752
644 762
644 772
644 777
644 779
644 797
645 685
645 724
645 726
645 731
645 741
645 742
645 745
645 778
645 795
645 796
646 662
646 675
646 677
646 683
646 686
646 702
646 704
646 727
646 731
646 764
646 768
646 772
646 786
647 664
647 677
647 691
647 694
647 717
647 719
647 720
647 721
647 736
647 737
647 743
647 761
647 791
647 799
648 657
648 674
648 683
648 691
648 714
648 728
648 734
648 737
648 740
648 742
648 743
648 750
648 756
648 763
648 774
648 775
648 781
648 792
648 798
648 985
649 677
649 691
649 710
649 713
649 721
649 730
649 745
649 751
649 756
649 759
649 760
650 652
650 653
650 667
650 669
650 692
650 698
650 701
650 709
650 719
650 725
650 728
650 743
650 756
650 759
650 767
650 774
650 782
650 953
651 660
651 667
651 676
651 691
651 701
651 706
651 710
651 729
651 730
651 734
651 777
651 779
651 782
651 783
651 786
652 661
652 662
652 669
652 687
652 692
652 693
652 699
652 729
652 733
652 739
652 753
652 766
652 768
652 773
652 792
653 656
653 657
653 659
653 666
653 676
653 696
653 700
653 702
653 704
653 710
653 718
653 726
653 746
653 755
653 775
653 785
653 787
653 795
654 668
654 683
654 688
654 718
654 739
654 740
654 742
654 752
654 758
654 770
654 771
654 778
654 791
655 659
655 668
655 670
655 685
655 699
655 702
655 722
655 746
655 754
655 756
655 764
655 771
655 773
655 778
655 780
655 818
656 661
656 665
656 669
656 682
656 697
656 713
656 720
656 725
656 737
656 757
656 775
656 781
656 799
657 659
657 662
657 665
657 673
657 686
657 690
657 706
657 746
657 748
657 763
657 765
657 775
657 784
657 786
657 799
657 878
658 660
658 661
658 665
658 671
658 704
658 706
658 712
658 721
658 726
658 755
658 758
658 765
658 766
658 783
658 785
658 787
659 713
659 717
659 720
659 730
659 737
659 748
659 765
659 772
659 788
660 662
660 663
660 668
660 669
660 691
660 708
660 721
660 722
660 723
660 756
660 759
660 760
660 767
660 768
660 782
660 860
661 667
661 669
661 679
661 700
661 701
661 702
661 735
661 743
661 747
661 772
661 778
661 796
662 664
662 665
662 666
662 685
662 699
662 702
662 704
662 743
662 763
662 766
662 785
662 799
663 670
663 688
663 689
663 697
663 698
663 705
663 710
663 721
663 744
663 748
663 749
663 765
663 770
663 798
664 676
664 698
664 722
664 726
664 737
664 743
664 745
664 748
664 758
664 770
664 779
665 668
665 678
665 681
665 697
665 707
665 740
665 754
665 756
665 759
665 760
665 777
665 784
665 787
665 791
665 796
665 832
666 673
666 677
666 678
666 680
666 702
666 717
666 725
666 735
666 736
666 739
666 740
666 747
666 752
666 772
666 773
666 777
666 782
666 789
666 798
667 703
667 710
667 722
667 738
667 742
667 770
667 778
667 786
667 788
667 789
667 798
668 669
668 681
668 682
668 685
668 686
668 693
668 710
668 711
668 735
668 745
668 765
668 771
668 775
668 780
668 781
668 795
668 799
669 674
669 686
669 719
669 730
669 734
669 742
669 744
669 751
669 753
669 757
669 784
670 681
670 700
670 701
670 719
670 735
670 755
670 760
670 777
670 778
671 674
671 683
671 688
671 702
671 710
671 722
671 736
671 737
671 770
671 791
672 679
672 688
672 700
672 712
672 714
672 726
672 729
672 783
672 785
672 794
673 675
673 676
673 691
673 693
673 728
673 744
673 754
673 763
673 773
673 776
673 796
674 677
674 685
674 687
674 699
674 708
674 725
674 740
674 753
674 761
674 770
674 782
674 792
675 704
675 771
675 787
675 795
676 679
676 705
676 739
676 745
676 747
676 754
676 757
676 765
676 781
676 786
676 990
677 710
677 720
677 721
677 748
677 752
677 760
677 768
677 769
677 783
677 788
677 790
677 797
678 680
678 714
678 732
678 740
678 749
678 754
678 775
678 784
679 681
679 691
679 716
679 736
679 738
679 740
679 759
679 761
679 765
679 768
680 699
680 701
680 706
680 711
680 712
680 714
680 724
680 726
680 733
680 735
680 742
680 771
680 774
680 782
680 791
680 798
681 682
681 696
681 713
681 720
681 737
681 779
681 796
681 875
682 683
682 687
682 707
682 711
682 743
682 754
682 762
682 769
682 772
682 791
683 690
683 695
683 701
683 725
683 728
683 734
683 743
683 747
683 751
683 756
683 760
683 762
683 799
684 690
684 698
684 701
684 715
684 716
684 720
684 723
684 739
684 751
684 761
684 797
685 686
685 689
685 695
685 708
685 717
685 720
685 736
685 737
685 742
685 745
685 754
685 767
685 780
685 781
685 787
685 793
685 798
686 696
686 731
686 733
686 734
686 776
686 789
686 795
687 695
687 698
687 700
687 722
687 735
687 741
687 747
687 757
687 759
687 761
687 776
688 696
688 728
688 733
688 741
688 749
688 794
689 700
689 709
689 723
689 751
689 758
689 760
689 762
689 764
689 770
689 771
689 789
690 709
690 716
690 718
690 756
690 759
690 761
690 766
690 770
690 772
690 774
690 776
690 781
690 792
690 799
691 716
691 732
691 734
691 742
691 752
691 761
691 762
691 763
691 765
691 783
691 789
691 794
691 795
692 697
692 699
692 702
692 710
692 714
692 720
692 730
692 735
692 739
692 743
692 745
692 747
692 755
692 756
692 758
692 778
692 780
693 698
693 706
693 720
693 722
693 738
693 754
693 760
693 769
693 773
693 796
693 798
694 704
694 707
694 711
694 712
694 719
694 722
694 741
694 742
694 749
694 759
694 760
694 763
694 791
694 795
694 896
695 706
695 712
695 728
695 753
695 766
695 783
695 784
696 703
696 705
696 709
696 713
696 726
696 728
696 734
696 735
696 744
696 745
696 753
696 756
696 763
696 764
696 777
696 780
696 781
696 789
696 793
697 708
697 727
697 731
697 736
697 754
697 772
697 776
697 790
697 791
697 797
697 954
698 705
698 725
698 728
698 741
698 752
698 758
698 759
698 764
698 770
698 791
698 797
699 708
699 712
699 716
699 744
699 759
699 761
699 764
699 765
699 778
699 781
699 794
699 795
700 711
700 736
700 737
700 739
700 743
700 770
700 778
700 794
701 708
701 716
701 719
701 738
701 755
701 761
702 703
702 709
702 713
702 715
702 719
702 720
702 727
702 728
702 751
702 752
702 754
702 764
702 769
702 772
702 778
702 779
702 781
702 787
702 788
702 796
703 708
703 717
703 719
703 728
703 732
703 739
703 755
703 765
703 778
704 710
704 714
704 730
704 732
704 743
704 753
704 757
704 767
704 771
704 783
704 797
705 708
705 713
705 721
705 722
705 727
705 739
705 747
705 749
705 750
705 753
705 755
705 762
705 766
705 773
705 784
705 787
706 729
706 731
706 749
706 761
706 773
706 794
707 713
707 714
707 730
707 731
707 733
707 743
707 757
707 775
707 778
707 790
708 709
708 721
708 730
708 740
708 747
708 751
708 756
708 775
708 781
708 789
708 792
708 809
709 716
709 740
709 745
709 758
709 759
709 769
710 730
710 741
710 755
710 757
710 766
710 772
710 784
710 788
710 792
710 798
711 733
711 736
711 737
711 747
711 757
711 758
711 764
711 776
711 784
712 721
712 745
712 767
712 768
712 773
712 779
712 784
712 791
713 726
713 730
713 738
713 739
713 741
713 751
713 752
713 790
714 732
714 738
714 749
714 752
714 753
714 758
715 730
715 740
715 744
715 767
715 786
715 789
715 790
716 717
716 737
716 739
716 749
716 751
716 771
716 773
717 721
717 734
717 764
717 768
717 769
717 775
717 779
717 787
717 788
717 790
717 796
718 734
718 735
718 744
718 747
718 752
718 757
718 764
718 769
718 771
718 779
718 788
718 793
719 729
719 755
719 760
719 763
719 769
719 773
719 793
720 724
720 730
720 738
720 741
720 749
720 753
720 798
721 729
721 766
721 772
721 774
721 783
722 739
722 755
722 767
722 768
722 779
722 787
722 794
722 795
723 739
723 744
723 745
723 750
723 758
723 763
723 770
723 784
724 727
724 784
724 786
724 787
724 791
725 734
725 741
725 744
725 763
725 765
725 771
725 774
725 775
725 777
725 781
725 782
725 786
725 794
726 732
726 733
726 739
726 744
726 757
726 776
726 809
727 736
727 741
727 750
727 758
727 759
727 780
727 786
727 787
728 733
728 738
728 754
728 755
728 758
728 760
728 773
728 779
728 785
728 792
729 730
729 753
729 758
729 759
729 764
729 770
729 788
729 795
730 733
730 749
730 762
730 763
730 764
730 796
730 842
731 745
731 761
731 767
731 769
731 770
731 772
731 779
731 780
732 734
732 752
732 754
732 767
732 769
732 798
733 735
733 752
733 764
733 770
733 799
733 897
734 737
734 748
734 759
734 763
734 767
734 782
734 798
735 748
735 760
735 764
735 766
735 773
735 775
735 777
735 783
736 753
736 756
736 765
736 775
736 791
737 743
737 747
737 749
737 767
737 772
737 774
737 793
737 878
738 740
738 774
738 778
738 795
738 798
738 982
739 744
739 765
739 771
739 780
739 783
739 795
740 746
740 759
740 761
740 781
740 782
740 785
741 759
741 764
741 766
741 768
741 773
741 787
741 793
741 796
741 798
742 751
742 752
742 787
743 754
743 755
743 757
743 763
743 774
743 787
743 856
744 762
744 774
744 784
744 789
744 799
745 755
745 756
745 761
745 774
745 778
745 791
745 799
745 851
746 795
746 817
747 757
747 759
747 760
747 767
747 796
748 759
748 787
748 788
748 793
748 999
749 750
749 766
749 770
749 771
749 775
749 781
749 790
749 795
750 770
750 788
751 772
751 774
751 785
751 790
752 754
752 761
752 769
752 776
752 781
752 785
753 759
753 781
754 757
754 764
754 917
755 756
755 758
755 791
755 796
756 757
756 759
756 769
756 775
756 781
757 775
758 762
758 770
758 773
758 775
758 778
758 793
759 772
759 788
759 797
760 768
760 774
760 780
760 791
760 794
760 798
761 767
761 771
761 788
762 764
762 770
762 792
762 798
762 991
763 764
763 767
763 769
763 770
763 772
763 773
763 778
764 771
764 783
764 788
764 791
765 777
765 794
766 785
766 789
766 799
767 777
767 791
767 798
769 772
769 786
769 794
770 774
770 776
770 778
770 779
770 780
770 781
770 791
770 792
771 773
771 785
771 797
771 799
771 948
771 985
772 796
773 782
773 788
773 795
774 777
774 779
774 784
774 785
774 786
774 787
774 790
775 778
775 779
775 782
775 821
777 781
777 795
778 787
778 789
778 795
780 784
780 787
780 791
780 797
780 799
782 784
782 790
783 793
783 796
784 792
784 794
784 914
785 791
785 796
785 799
786 798
786 872
787 798
788 906
789 792
790 799
790 903
791 799
792 796
792 797
793 799
794 796
794 798
795 799
797 919
798 799
800 805
800 825
800 834
800 859
800 863
800 869
800 870
800 874
800 882
800 887
800 892
800 906
800 926
800 928
800 935
800 945
800 950
800 954
800 976
800 984
801 802
801 830
801 842
801 853
801 868
801 877
801 882
801 888
801 907
801 930
801 933
801 943
801 961
801 967
801 976
802 815
802 824
802 832
802 833
802 836
802 850
802 854
802 895
802 919
802 929
802 935
802 949
802 960
802 964
802 979
802 982
802 998
803 815
803 822
803 826
803 830
803 833
803 839
803 866
803 876
803 879
803 889
803 904
803 916
803 924
803 972
803 973
803 976
803 985
803 990
804 811
804 822
804 854
804 856
804 858
804 860
804 882
804 889
804 904
804 918
804 919
804 948
804 951
804 958
804 967
804 974
805 811
805 813
805 849
805 864
805 871
805 886
805 887
805 888
805 889
805 890
805 893
805 898
805 912
805 923
805 926
805 939
805 941
805 947
805 963
805 964
805 981
805 992
805 995
806 829
806 833
806 840
806 842
806 850
806 855
806 860
806 869
806 875
806 893
806 895
806 909
806 910
806 926
806 933
806 936
806 949
806 962
806 974
806 997
807 811
807 822
807 858
807 890
807 895
807 910
807 911
807 916
807 921
807 941
807 945
807 949
807 951
807 960
807 964
807 965
807 978
807 985
807 993
807 995
808 820
808 823
808 824
808 834
808 852
808 853
808 865
808 871
808 886
808 890
808 891
808 903
808 909
808 911
808 918
808 921
808 923
808 929
808 947
808 949
808 952
808 970
808 978
808 992
808 996
809 811
809 820
809 829
809 846
809 847
809 852
809 853
809 877
809 882
809 887
809 896
809 900
809 903
809 922
809 929
809 933
809 960
809 966
809 969
810 816
810 828
810 831
810 851
810 855
810 879
810 886
810 896
810 904
810 907
810 908
810 912
810 953
810 960
810 963
810 970
810 971
810 972
810 975
810 981
810 995
810 999
811 813
811 827
811 842
811 844
811 848
811 883
811 891
811 892
811 900
811 902
811 916
811 929
811 932
811 933
811 955
811 960
811 971
811 981
811 982
811 990
812 818
812 828
812 836
812 844
812 856
812 858
812 860
812 867
812 890
812 892
812 894
812 898
812 901
812 902
812 915
812 929
812 958
812 963
812 976
812 990
813 835
813 866
813 874
813 887
813 910
813 914
813 916
813 921
813 938
813 948
813 951
813 956
813 965
813 977
813 992
814 815
814 819
814 850
814 876
814 905
814 919
814 927
814 954
814 956
815 829
815 831
815 833
815 871
815 872
815 890
815 893
815 895
815 908
815 924
815 926
815 944
815 952
815 953
815 971
816 824
816 834
816 837
816 843
816 848
816 854
816 873
816 875
816 876
816 883
816 886
816 888
816 890
816 895
816 901
816 921
816 926
816 958
816 968
816 973
816 995
816 999
817 820
817 822
817 835
817 837
817 842
817 863
817 867
817 869
817 877
817 889
817 896
817 916
817 928
817 943
817 946
817 982
817 989
817 998
818 820
818 824
818 834
818 840
818 846
818 848
818 852
818 860
818 863
818 879
818 889
818 890
818 894
818 897
818 900
818 906
818 909
818 914
818 930
818 933
818 944
818 954
818 957
818 981
818 982
818 992
818 995
819 829
819 832
819 838
819 849
819 854
819 856
819 859
819 863
819 864
819 885
819 889
819 982
819 985
819 986
819 991
819 992
820 821
820 824
820 825
820 826
820 827
820 833
820 834
820 835
820 842
820 846
820 848
820 861
820 868
820 896
820 903
820 921
820 923
820 930
820 932
820 947
820 949
820 962
820 965
820 972
820 986
820 988
821 829
821 847
821 855
821 875
821 878
821 899
821 900
821 912
821 923
821 926
821 929
821 955
822 831
822 851
822 863
822 872
822 876
822 885
822 889
822 894
822 906
822 909
822 910
822 914
822 926
822 933
822 941
822 942
822 945
822 949
822 951
822 963
822 980
822 983
822 988
822 993
823 851
823 854
823 887
823 896
823 899
823 906
823 915
823 922
823 923
823 945
823 978
824 832
824 849
824 856
824 867
824 870
824 877
824 878
824 894
824 918
824 919
824 925
824 927
824 928
824 932
824 954
824 968
824 972
824 978
824 981
825 879
825 889
825 891
825 901
825 919
825 932
825 943
825 950
825 962
825 971
825 972
825 993
826 830
826 831
826 840
826 850
826 851
826 854
826 862
826 867
826 868
826 872
826 885
826 888
826 895
826 907
826 921
826 946
826 979
826 984
826 985
827 828
827 831
827 840
827 852
827 879
827 883
827 897
827 900
827 902
827 908
827 921
827 932
827 937
827 938
827 939
827 946
827 956
827 961
827 975
827 985
827 991
828 876
828 877
828 881
828 882
828 893
828 899
828 913
828 935
828 954
828 988
828 990
829 843
829 848
829 857
829 890
829 894
829 920
829 934
829 935
829 936
829 945
829 956
829 964
829 965
829 984
830 845
830 872
830 878
830 884
830 925
830 929
830 934
830 939
830 943
830 952
830 963
830 967
830 996
831 865
831 866
831 871
831 881
831 901
831 904
831 911
831 914
831 928
831 943
831 955
831 956
831 980
831 988
832 852
832 861
832 867
832 868
832 872
832 876
832 884
832 885
832 891
832 893
832 906
832 908
832 922
832 930
832 944
832 952
832 956
832 967
832 979
832 982
832 988
833 858
833 874
833 876
833 887
833 891
833 933
833 943
833 973
833 982
834 841
834 846
834 899
834 900
834 907
834 916
834 917
834 942
834 970
834 976
834 985
834 993
834 995
835 836
835 851
835 858
835 893
835 898
835 908
835 912
835 916
835 937
835 945
835 948
835 964
835 976
835 978
835 982
835 983
835 991
835 995
835 996
835 999
836 837
836 841
836 843
836 844
836 858
836 866
836 876
836 880
836 918
836 938
836 953
836 965
836 973
836 987
836 988
837 843
837 850
837 877
837 882
837 908
837 911
837 929
837 942
837 956
837 958
837 968
837 971
837 984
837 988
838 855
838 884
838 889
838 891
838 895
838 899
838 918
838 919
838 923
838 932
838 935
838 940
838 954
838 958
838 962
838 996
838 997
839 844
839 852
839 853
839 856
839 865
839 870
839 881
839 900
839 906
839 915
839 923
839 927
839 943
839 965
839 969
839 976
840 843
840 849
840 854
840 862
840 871
840 884
840 888
840 892
840 903
840 905
840 910
840 921
840 928
840 935
840 942
840 952
840 966
840 967
840 975
840 989
840 990
840 997
841 843
841 848
841 867
841 872
841 879
841 882
841 903
841 909
841 915
841 933
841 938
841 944
841 956
841 973
841 999
842 849
842 852
842 859
842 865
842 868
842 871
842 880
842 886
842 889
842 897
842 907
842 921
842 936
842 940
842 942
842 962
842 969
842 977
842 979
842 980
842 981
842 982
842 989
842 991
843 863
843 864
843 880
843 885
843 895
843 896
843 900
843 909
843 915
843 920
843 925
843 928
843 954
844 849
844 858
844 861
844 868
844 886
844 901
844 906
844 911
844 952
844 957
844 968
845 850
845 852
845 853
845 863
845 866
845 879
845 888
845 897
845 900
845 903
845 933
845 934
845 952
845 962
845 965
845 981
845 985
846 850
846 862
846 895
846 900
846 930
846 938
846 947
846 952
846 981
846 982
846 990
847 850
847 853
847 855
847 861
847 871
847 890
847 898
847 899
847 907
847 921
847 922
847 923
847 924
847 926
847 942
847 946
847 948
847 971
847 976
847 982
847 997
848 859
848 860
848 868
848 889
848 902
848 927
848 938
848 941
848 945
848 954
848 965
849 851
849 852
849 853
849 855
849 857
849 859
849 880
849 883
849 908
849 911
849 914
849 921
849 945
849 958
849 974
849 977
849 978
849 993
850 852
850 875
850 904
850 905
850 908
850 959
850 970
850 987
850 996
851 854
851 862
851 877
851 892
851 898
851 900
851 901
851 904
851 920
851 921
851 930
851 954
851 959
851 961
851 976
851 981
851 984
851 994
852 853
852 856
852 865
852 869
852 886
852 887
852 891
852 908
852 909
852 924
852 928
852 950
852 953
852 972
852 975
852 978
852 983
852 986
852 991
852 993
852 994
852 998
853 887
853 900
853 918
853 921
853 928
853 954
853 963
853 965
853 967
853 972
853 981
853 996
854 887
854 910
854 924
854 957
854 963
854 967
854 969
854 984
854 986
854 989
855 861
855 865
855 872
855 873
855 882
855 884
855 887
855 898
855 901
855 903
855 905
855 908
855 934
855 946
855 951
855 954
855 966
855 970
855 973
855 977
855 984
855 989
855 992
855 993
855 997
856 880
856 881
856 884
856 908
856 909
856 912
856 924
856 942
856 943
856 947
856 952
856 990
857 861
857 863
857 867
857 888
857 901
857 906
857 914
857 915
857 921
857 928
857 930
857 947
857 954
857 956
857 961
858 869
858 871
858 876
858 889
858 901
858 903
858 909
858 912
858 923
858 927
858 930
858 938
858 939
858 942
858 964
858 968
858 972
858 978
858 986
859 861
859 868
859 872
859 909
859 918
859 921
859 922
859 928
859 946
859 949
859 973
859 987
859 994
860 877
860 881
860 884
860 890
860 894
860 906
860 908
860 911
860 913
860 914
860 927
860 934
860 935
860 972
860 976
860 977
860 987
860 992
860 994
860 998
861 864
861 868
861 889
861 890
861 898
861 902
861 906
861 926
861 930
861 931
861 946
861 991
862 870
862 883
862 889
862 891
862 892
862 897
862 910
862 934
862 960
862 968
862 985
862 989
862 995
863 868
863 881
863 883
863 892
863 896
863 899
863 905
863 909
863 924
863 954
863 955
863 956
863 962
863 965
863 970
863 975
863 978
863 981
863 986
863 991
863 996
863 999
864 876
864 884
864 895
864 897
864 902
864 907
864 909
864 913
864 921
864 924
864 925
864 962
864 963
864 964
864 967
864 985
865 900
865 910
865 915
865 921
865 933
865 980
865 984
866 881
866 909
866 915
866 939
866 950
866 964
866 974
866 976
866 983
866 984
866 999
867 869
867 881
867 900
867 916
867 931
867 932
867 937
867 943
867 945
867 954
867 961
867 999
868 873
868 878
868 884
868 887
868 905
868 918
868 920
868 926
868 935
868 942
868 947
868 951
868 960
868 991
869 873
869 875
869 878
869 886
869 887
869 891
869 892
869 896
869 913
869 915
869 937
869 948
869 965
869 966
869 984
869 985
869 989
869 992
869 993
869 994
870 876
870 886
870 887
870 888
870 894
870 897
870 907
870 908
870 911
870 940
870 963
870 968
870 991
871 879
871 896
871 899
871 911
871 915
871 916
871 919
871 946
871 976
871 979
871 981
871 992
872 873
872 874
872 882
872 885
872 910
872 925
872 931
872 961
872 963
872 968
872 971
872 993
873 900
873 902
873 904
873 906
873 917
873 922
873 934
873 939
873 940
873 944
873 953
873 958
873 964
873 975
873 977
873 988
873 991
874 880
874 882
874 888
874 896
874 904
874 913
874 923
874 931
874 937
874 972
874 979
874 994
874 997
875 878
875 883
875 887
875 910
875 919
875 926
875 927
875 929
875 932
875 939
875 941
875 973
875 975
875 989
876 890
876 894
876 895
876 916
876 918
876 948
876 951
876 960
876 963
876 967
876 973
876 991
877 880
877 891
877 894
877 910
877 913
877 916
877 922
877 923
877 936
877 950
877 951
877 964
877 973
877 984
877 993
877 995
877 997
878 897
878 903
878 904
878 920
878 936
878 942
878 947
878 949
878 959
878 980
879 895
879 896
879 905
879 921
879 933
879 947
879 948
879 955
879 963
879 964
879 972
879 978
879 979
879 980
879 993
880 885
880 888
880 892
880 902
880 908
880 910
880 911
880 913
880 924
880 935
880 937
880 941
880 944
880 946
880 962
880 968
880 985
880 986
880 996
881 886
881 887
881 888
881 901
881 911
881 913
881 921
881 922
881 926
881 928
881 933
881 947
881 985
882 926
882 932
882 933
882 954
882 955
882 992
883 888
883 894
883 903
883 904
883 910
883 951
883 967
883 978
884 885
884 892
884 921
884 938
884 955
884 976
884 978
884 979
884 981
884 996
884 999
885 889
885 929
885 930
885 932
885 945
885 959
885 963
885 965
885 967
885 968
885 971
886 892
886 934
886 938
886 944
886 954
886 956
886 959
886 990
886 995
887 899
887 907
887 914
887 926
887 929
887 935
887 947
887 950
887 951
887 952
887 964
887 968
888 891
888 896
888 901
888 904
888 912
888 927
888 955
888 961
888 969
888 976
888 979
888 983
888 987
889 897
889 904
889 909
889 924
889 928
889 932
889 943
889 947
889 952
889 953
889 967
890 896
890 903
890 909
890 910
890 916
890 924
890 948
890 960
890 972
890 977
890 978
890 980
890 997
891 894
891 896
891 908
891 959
891 963
891 965
891 966
891 986
892 902
892 910
892 920
892 931
892 941
892 948
892 972
892 982
892 987
893 902
893 910
893 931
893 937
893 952
893 962
893 963
893 964
893 988
893 991
893 997
894 909
894 911
894 991
895 896
895 921
895 933
895 947
895 957
895 958
895 964
895 972
895 989
896 926
896 944
896 952
896 966
896 969
896 973
896 981
896 982
896 991
897 900
897 905
897 929
897 931
897 933
897 934
897 936
897 938
897 944
897 956
897 975
897 978
897 984
897 988
897 993
898 912
898 926
898 932
898 933
898 960
898 964
898 965
898 970
898 984
899 917
899 920
899 935
899 948
899 955
899 959
899 981
899 985
899 995
900 926
900 930
900 939
900 956
900 975
901 909
901 910
901 915
901 945
901 948
901 957
901 963
901 966
901 967
901 968
901 980
901 985
901 987
901 998
902 926
902 941
902 942
902 956
902 962
902 977
902 993
902 998
903 914
903 928
903 934
903 944
903 949
903 961
903 968
903 990
903 992
904 969
904 976
905 918
905 922
905 923
905 931
905 952
905 969
905 983
905 984
906 909
906 958
906 961
906 985
906 991
906 993
907 915
907 923
907 941
907 943
907 946
907 953
907 974
907 977
907 981
908 919
908 924
908 929
908 930
908 931
908 938
908 949
908 951
908 964
908 990
908 994
908 995
909 931
909 937
909 942
909 985
909 993
909 995
910 923
910 930
910 931
910 933
910 936
910 938
910 946
910 953
910 962
910 963
910 965
910 971
911 917
911 928
911 938
911 939
911 945
911 957
911 961
911 967
911 982
911 990
912 940
912 951
912 954
912 958
912 962
912 977
912 981
913 915
913 917
913 920
913 924
913 927
913 955
913 973
914 923
914 934
914 938
914 945
914 949
914 951
914 959
914 973
914 977
915 936
915 937
915 941
915 963
915 984
915 990
916 926
916 939
916 942
916 954
916 979
916 987
917 925
917 938
917 962
917 966
917 971
917 976
917 977
917 989
917 991
918 938
918 943
918 960
918 965
918 970
918 975
918 976
918 981
918 986
918 989
919 925
919 927
919 935
919 938
919 959
919 970
919 977
919 978
919 989
919 994
920 938
920 982
920 999
921 926
921 930
921 931
921 949
921 950
921 956
921 957
921 961
921 967
921 978
921 983
921 990
921 992
922 937
922 943
922 944
922 957
922 960
922 964
922 981
922 985
922 998
923 934
923 951
923 954
923 968
923 976
923 996
924 935
924 936
924 942
924 945
924 960
924 973
924 985
924 994
925 931
925 936
925 947
925 948
925 951
925 975
926 928
926 931
926 954
926 958
926 960
926 967
926 973
926 974
926 976
926 989
927 937
927 946
927 973
928 951
928 960
928 966
928 978
928 985
928 989
929 945
929 952
929 967
929 997
929 998
930 931
930 936
930 942
930 965
930 970
930 972
930 973
930 974
930 980
930 993
931 933
931 943
931 984
931 996
932 936
932 938
932 939
932 953
932 960
932 961
932 966
932 976
933 938
933 940
933 941
933 946
933 950
933 951
933 968
933 978
933 983
933 989
934 944
934 948
934 957
934 967
934 971
934 978
934 991
935 942
935 945
935 971
935 981
936 940
936 982
936 989
936 997
937 943
937 947
937 953
937 982
937 986
937 990
937 995
938 943
938 947
938 950
938 951
938 954
938 965
938 975
938 977
938 984
938 999
939 944
939 945
939 946
939 950
939 965
939 969
939 978
939 981
939 993
939 994
940 972
940 987
940 995
940 999
941 968
941 974
941 978
941 979
941 980
941 981
941 985
941 989
941 992
942 949
942 954
942 956
942 983
943 958
943 994
944 948
944 950
944 959
944 970
944 975
944 976
944 985
944 986
945 964
945 977
945 978
945 994
945 999
946 952
946 978
946 979
946 984
946 985
946 993
946 994
946 998
947 966
947 967
947 979
947 983
947 991
947 998
948 953
948 954
948 978
948 988
949 960
949 966
949 967
949 969
949 976
949 977
949 987
950 972
950 986
950 996
951 962
951 965
951 977
951 986
951 990
952 957
952 960
952 967
952 975
952 983
952 985
952 988
953 960
953 971
953 974
953 999
954 960
954 965
954 974
954 975
954 978
954 986
954 999
955 977
956 959
956 999
957 959
957 982
957 990
957 993
958 969
958 975
958 980
958 981
958 992
959 970
959 973
960 965
960 976
960 985
960 997
960 999
961 979
961 987
961 995
961 996
961 997
962 976
963 974
963 980
963 987
963 989
964 974
964 984
964 987
964 996
965 970
965 973
965 979
965 990
965 995
966 967
966 969
966 985
966 987
966 994
966 995
967 983
967 997
968 985
968 990
968 994
969 980
970 975
970 978
971 994
972 974
972 987
972 991
972 994
973 997
973 998
974 987
974 995
975 998
976 987
976 993
977 987
977 997
978 982
978 988
978 989
978 994
978 999
979 990
979 992
980 987
980 992
980 995
981 993
981 997
982 990
983 985
983 989
984 998
986 995
986 997
986 999
987 994
989 993
991 995
991 996
992 999
994 995